LAMMPS data file via write_data, version 7 Feb 2024, timestep = 200000, units = lj

4000 atoms
1 atom types

-0.22059806025069673 10.783370345357078 xlo xhi
-0.3820870484057117 18.677345314992728 ylo yhi
-0.36023512390792156 17.609170035723647 zlo zhi

Masses

1 1

Pair Coeffs # lj/cut

1 1 1

Atoms # atomic

8 1 0.8431432368385865 0.23977202438023826 0.6629734678303163 0 0 0
4 1 -0.19054661651735952 0.29112366718913796 0.4715606917620583 0 0 0
5 1 0.942550864158062 -0.2661924085789438 17.583204688496565 0 0 -1
12 1 2.0361638910489814 0.29926204770753373 0.4936515247382204 0 0 0
6 1 1.342481859975624 0.621702833706063 -0.35589121352461445 0 0 0
10 1 2.571683334635532 0.629727683725877 -0.3108933256859769 0 0 0
16 1 3.13327658978457 0.2821855851901738 0.5059751770412416 0 0 0
20 1 4.265913633177693 0.2531110376197462 0.5461745351204725 0 0 0
13 1 3.1230411339435054 18.59289703401321 -0.3127766385056468 0 -1 0
24 1 5.295305225823519 0.27141534253614064 0.5559891625933417 0 0 0
18 1 4.8098369010086985 0.7431809709397328 -0.2462682589310632 0 0 0
21 1 5.281138774671604 18.675491385418077 -0.31307056194803123 0 -1 0
28 1 6.387068776009008 0.3457180660197311 0.6680691475234528 0 0 0
32 1 7.425726400242842 0.25555811033249065 0.5519764757111794 0 0 0
26 1 6.848279171444408 0.5553466965847154 -0.2759654445294881 0 0 0
29 1 7.481264998086074 -0.2581503029561289 -0.32569276712082507 0 0 0
36 1 8.648105464563187 0.23669561390980087 0.4405491935955107 0 0 0
40 1 9.665976026090867 0.10765888512279997 0.4950200592629811 0 0 0
38 1 10.30314003902209 0.5423160250647234 17.55223423873582 0 0 -1
1 1 -0.1509645851139838 18.54478489929661 17.56099865790172 0 -1 -1
37 1 9.805675315970156 18.63213465623514 17.530065482287007 0 -1 -1
3 1 0.3163707954736328 1.200391033277722 0.46597089735722896 0 0 0
48 1 0.9110071340143544 2.1043942698878686 0.4547406046706852 0 0 0
44 1 -0.18151285266212622 2.210449516380131 0.4140611414219736 0 0 0
42 1 0.34487454685911045 2.5758900249283347 17.602444007295404 0 0 -1
41 1 -0.21248372421317896 1.640611599241414 17.570379559703824 0 0 -1
7 1 1.608826753700676 1.2147720552037948 0.5829223242456728 0 0 0
11 1 2.607863991755727 1.2792069145869622 0.5776152373836286 0 0 0
52 1 2.006144749752593 2.194726035114832 0.5487610152346509 0 0 0
49 1 1.894956185373533 1.5716434192825828 -0.346374879871601 0 0 0
15 1 3.6598923376624284 1.3995416686905737 0.612841653929051 0 0 0
56 1 3.16713846589586 2.2550260887428504 0.5980048366834717 0 0 0
60 1 4.319853219403996 2.3023544880925577 0.4895633260401734 0 0 0
53 1 3.1348080430986887 1.5946922214019748 -0.2154500062632605 0 0 0
57 1 4.225875284112351 1.6343049672739451 17.561384311268867 0 0 -1
54 1 3.6438729684096445 2.482543402549064 -0.3285130651045108 0 0 0
23 1 5.862462499700674 1.1430391393276154 0.5673970466500877 0 0 0
19 1 4.6890092070331475 1.2256487950063515 0.5992568766103037 0 0 0
64 1 5.351563257354494 2.2797771956893658 0.5366324822420029 0 0 0
61 1 5.277158816649861 1.615110235776102 -0.16726429968464784 0 0 0
62 1 5.855446951374283 2.6165502637892097 17.59094196097619 0 0 -1
27 1 6.9654031163021966 1.1630322387372423 0.5878833158476111 0 0 0
68 1 6.432142519199781 2.058009363730105 0.5382665566804556 0 0 0
72 1 7.450689732521017 2.150203501097386 0.5132945042070209 0 0 0
66 1 6.919575834766258 2.5231674589433 -0.3542855764859496 0 0 0
69 1 7.4221429355544455 1.5195474901761445 -0.320893236066815 0 0 0
31 1 8.063203314257521 1.2045870898364541 0.5543032850691468 0 0 0
76 1 8.67791778080527 2.212984354140512 0.5240781112702209 0 0 0
73 1 8.571190295290975 1.515314090164924 -0.26993377814413105 0 0 0
35 1 9.220329793868128 1.0597144668293246 0.5349681046400594 0 0 0
74 1 9.080854709775469 2.5220967280065283 -0.3497354972047302 0 0 0
39 1 10.232064586717357 1.22233950454178 0.4990990789155145 0 0 0
80 1 9.727066964866975 2.3007682888292957 0.5206461322921995 0 0 0
78 1 10.192568492818232 2.6014726508350443 17.575203950677995 0 0 -1
77 1 9.658063152439215 1.642823745040479 -0.2899441499460049 0 0 0
43 1 0.3230146276111452 3.1182566529272933 0.5539120588626408 0 0 0
85 1 0.8781030894186841 3.515736820952158 17.59106578974236 0 0 -1
47 1 1.3770856951756383 3.051942990302447 0.49512033569080727 0 0 0
51 1 2.6123399288699742 3.2141811040313373 0.5247919187349901 0 0 0
89 1 2.000285193147027 3.538659492283163 -0.3350240468830279 0 0 0
55 1 3.690125517578629 3.1310655844419117 0.4993150672947281 0 0 0
93 1 3.149690269330327 3.419791943675154 17.54571061390223 0 0 -1
59 1 4.676622707881794 3.2739911280812266 0.4782466020845644 0 0 0
63 1 5.937390470451042 3.123307493639528 0.45981119061348685 0 0 0
104 1 5.2711046300796625 4.210519122082862 0.44170984928710266 0 0 0
101 1 5.267344632636007 3.497924716728224 -0.33760516400435303 0 0 0
67 1 6.949023154009352 3.129267308947144 0.6182582172755771 0 0 0
71 1 7.989057019330377 3.2035613895138497 0.6381445879394549 0 0 0
75 1 9.112875981131044 3.125087423305265 0.5705810141267483 0 0 0
79 1 10.319243810909565 3.2103972912637557 0.5043190304269403 0 0 0
117 1 9.761325945591317 3.5179659554010225 -0.3057631777952404 0 0 0
88 1 0.9358809365061007 4.011126894663709 0.45717905668776837 0 0 0
84 1 -0.17750088395197264 4.081286905921302 0.5611979441834121 0 0 0
83 1 0.2989554692947116 5.038287737982987 0.5452924998546336 0 0 0
125 1 0.9329426424867695 5.390859565214091 -0.2476928778660085 0 0 0
82 1 0.30338248377652743 4.529074096929342 -0.35876282468661297 0 0 0
92 1 1.922518062061993 4.009753893442744 0.5032355529195014 0 0 0
87 1 1.3866673562450094 4.911254119982883 0.5217008993323621 0 0 0
91 1 2.372677003101367 5.0278280923720065 0.4698011815835862 0 0 0
129 1 1.9377114476087476 5.3214965702861665 17.609142770625112 0 0 -1
86 1 1.5109138819335308 4.459205820524171 17.575494117288983 0 0 -1
90 1 2.600082547374386 4.350662416058981 17.557488768187305 0 0 -1
100 1 4.196507601716252 4.220000798536631 0.5133282907383271 0 0 0
96 1 3.0626062561148872 4.163056352915571 0.45673036799121447 0 0 0
95 1 3.689730701103857 5.1184533612238265 0.5366421641685348 0 0 0
137 1 4.098233106854341 5.444870386015375 -0.32939700387575477 0 0 0
99 1 4.77459299263082 5.098887805930831 0.560427358285311 0 0 0
103 1 5.777986279825214 5.065187557852322 0.5978359189416338 0 0 0
141 1 5.189310565101431 5.369134713736053 17.563601662542453 0 0 -1
98 1 4.67881342632914 4.485839429245585 -0.2817733809152881 0 0 0
112 1 7.46783615806993 4.1246130294661825 0.5347937742931451 0 0 0
108 1 6.371324565287951 4.078316081024138 0.5454331848800474 0 0 0
107 1 6.923368042658356 5.101059853300074 0.479257595090241 0 0 0
149 1 7.371309358180781 5.372340543120703 17.544998956258233 0 0 -1
116 1 8.540421769563846 4.059233645164623 0.44605402941532457 0 0 0
111 1 7.957527872986689 5.002223438877707 0.5259750307238513 0 0 0
115 1 9.106135097984136 5.1206146081337325 0.4804624608836995 0 0 0
114 1 9.09249088633463 4.4066212170736545 -0.3483197251521738 0 0 0
120 1 9.577861151000281 4.181316036217476 0.5363129851728067 0 0 0
119 1 10.220559925483926 4.98106398444257 0.3996810798959811 0 0 0
121 1 -0.16271284542569925 5.42052999643502 -0.33965238161118094 0 0 0
157 1 9.514536766534292 5.412437412756545 17.58384346668678 0 0 -1
128 1 0.7911399070335485 6.056553433840965 0.5977678023108546 0 0 0
124 1 -0.1851110811736357 6.0226872731477314 0.43662350535181127 0 0 0
127 1 1.3943846347479323 6.89865381355533 0.45886150192927544 0 0 0
126 1 1.495945778322541 6.36516713711973 17.58814194592371 0 0 -1
132 1 2.005552518526994 5.996184509752662 0.5070358706269676 0 0 0
130 1 2.5122446049147924 6.37281278123111 -0.321234248706709 0 0 0
131 1 2.6351508071468914 6.937799446369126 0.5307222754626987 0 0 0
136 1 2.9910895563904907 5.982167861682103 0.46870387765497623 0 0 0
140 1 4.129425880483165 6.003484441984114 0.546691283674944 0 0 0
134 1 3.600988527227545 6.444639567590003 17.582395104667 0 0 -1
144 1 5.377900395729052 6.051220746173902 0.48955516253866815 0 0 0
143 1 5.920606183843397 6.97969482028625 0.5768698802361867 0 0 0
139 1 4.74527727698998 7.004151240088729 0.4809491890284905 0 0 0
142 1 5.910573614324233 6.408310337891644 17.548448370454217 0 0 -1
138 1 4.8321882998255195 6.34224012077312 -0.2883122801119618 0 0 0
148 1 6.46457641051947 6.018018435490339 0.5156236302331089 0 0 0
152 1 7.444810292228741 6.002006509570632 0.4205216031064829 0 0 0
146 1 6.9433143129016734 6.4256922537982675 -0.3518156104161872 0 0 0
147 1 6.985221513246422 6.969622370280244 0.5356517004291302 0 0 0
156 1 8.574853560740774 6.082881780567905 0.6089798655164261 0 0 0
155 1 9.12387990648229 6.907655936312491 0.5470944106545585 0 0 0
151 1 7.964483606724397 6.9290380013398165 0.6083183348197969 0 0 0
160 1 9.764056738652982 5.943105338349217 0.6181109037706756 0 0 0
159 1 10.26533824639301 6.942130256829271 0.39609164262993246 0 0 0
123 1 0.36524717379118865 7.043371946769505 0.41091519349428807 0 0 0
168 1 0.9683528756833857 7.926036111362789 0.3696687712947476 0 0 0
165 1 0.9167369139935815 7.227499048982977 17.527294106116614 0 0 -1
172 1 2.0284766259492426 7.7663848190576665 0.4878542457778682 0 0 0
169 1 1.9806668409070012 7.336851452215243 17.479231713458084 0 0 -1
135 1 3.6808401154405725 7.0046693339501935 0.48978258612885706 0 0 0
176 1 3.0541916393723825 7.894047410043573 0.46924242813496375 0 0 0
180 1 4.291334191257777 7.917036133604219 0.49742269422839214 0 0 0
177 1 4.233127911346212 7.258631675617917 17.593120480715324 0 0 -1
184 1 5.325187902847377 7.986414551891155 0.5335342819404001 0 0 0
181 1 5.456962986766551 7.259693123110422 -0.25335408658459635 0 0 0
188 1 6.450007908002298 7.859725048900971 0.577781255896643 0 0 0
186 1 7.051243544767653 8.288130942623258 17.599606738324617 0 0 -1
185 1 6.4758719088868695 7.348703815977942 17.608475412544962 0 0 -1
189 1 7.536290915573175 7.315191139763157 -0.3248547127684136 0 0 0
192 1 7.5011611363288075 7.900201555049161 0.6094919655749309 0 0 0
196 1 8.490057729343626 7.892751138370672 0.5701263743547204 0 0 0
194 1 9.120185070844947 8.244143899519814 -0.25815757182952087 0 0 0
190 1 8.041098188309437 8.218072248957132 -0.33516597441470314 0 0 0
164 1 -0.20470663940902584 7.868473873588464 0.5092810269549585 0 0 0
200 1 9.778750627459544 7.898924698901556 0.4663927141807609 0 0 0
163 1 0.4348539055146661 8.686770047736163 0.5202647357792984 0 0 0
208 1 1.0484310877091145 9.586963171829806 0.6111837931343509 0 0 0
204 1 0.010958118070902079 9.77017298966821 0.6388465248488864 0 0 0
201 1 -0.18999545905879406 9.065108069007893 -0.26809310612581383 0 0 0
167 1 1.6066097984179042 8.702514943374805 0.5494202120995191 0 0 0
171 1 2.712743442384613 8.847863916102035 0.40458178101170883 0 0 0
209 1 2.051585962846719 9.188091046633353 -0.35080973211069927 0 0 0
175 1 3.703359792352076 8.750611006102778 0.4507592128009047 0 0 0
220 1 4.170599482532265 9.741786217862476 0.4836740392825868 0 0 0
216 1 3.1086277126614212 9.823154610348379 0.4808771989007552 0 0 0
213 1 3.2155431179266167 9.121192183304698 17.56629335929229 0 0 -1
217 1 4.221476565639529 9.158407003186404 17.587369973466302 0 0 -1
179 1 4.807616430097546 8.829445709053758 0.5060172631313004 0 0 0
183 1 5.867914233969769 8.868717458178642 0.5064420386014674 0 0 0
224 1 5.238306255807387 9.866658692166832 0.4688468439787714 0 0 0
221 1 5.338490637617469 9.14274220648317 17.569643633647054 0 0 -1
187 1 6.90359418174606 8.839385435633082 0.4526533079790451 0 0 0
228 1 6.492952802708627 10.02773188850183 0.5022545723485018 0 0 0
232 1 7.562095973976012 9.947069719586725 0.47771974802322204 0 0 0
229 1 7.4990373001632395 9.2637385224965 17.566018164847318 0 0 -1
225 1 6.367070730404349 9.325503390501986 -0.312421711815275 0 0 0
191 1 8.036311662859003 8.845021504522503 0.543819972230964 0 0 0
233 1 8.57271023977102 9.186749323392654 17.508803516612126 0 0 -1
195 1 9.169861597311854 8.774397693884378 0.6100550096203237 0 0 0
199 1 10.239350099797328 8.823406750205086 0.6361738670219341 0 0 0
240 1 9.609308491339448 9.773923495569049 0.469845689148214 0 0 0
203 1 0.42043258146778506 10.779231364938726 0.4188881129637525 0 0 0
207 1 1.4799726424469222 10.692820170311455 0.4656959977675328 0 0 0
202 1 0.428304540813931 10.064545361155357 -0.25742530222763554 0 0 0
212 1 2.1054170443410816 9.808230953380642 0.4666286717799656 0 0 0
211 1 2.6274483201655845 10.735393037831896 0.5644253712401696 0 0 0
210 1 2.6424186525409192 10.09096905227085 17.418529811681204 0 0 -1
215 1 3.6917981072907984 10.645763000076274 0.5812721808644923 0 0 0
257 1 4.192415444945227 11.135590453778965 -0.32794105384316075 0 0 0
253 1 3.095562222317823 11.094940193790325 17.576900338049178 0 0 -1
219 1 4.724151244598655 10.830870799369418 0.6392640878117194 0 0 0
223 1 5.749886395395607 10.819520965146584 0.6233160175773912 0 0 0
222 1 5.886777587198065 10.290438537996543 -0.258995730577349 0 0 0
261 1 5.28863347797432 11.09550443381408 -0.23218722036164552 0 0 0
227 1 7.06449144309 10.854258017239433 0.4712359650034559 0 0 0
236 1 8.656618141370963 9.830111583970442 0.5092083543480461 0 0 0
231 1 8.175035673282299 10.781390647336965 0.4506784921208411 0 0 0
273 1 8.618877711588873 11.107295962457394 -0.3567669773914517 0 0 0
235 1 9.19799275872856 10.791624335899256 0.42301511185937024 0 0 0
239 1 10.236024572611171 10.788142591956529 0.47019304033866705 0 0 0
248 1 0.9071815735846243 11.647673167577974 0.42481262173445755 0 0 0
243 1 0.407548352130383 12.534302692297247 0.6331431432080487 0 0 0
244 1 -0.15869544267318733 11.667181228632273 0.4820024408552537 0 0 0
242 1 0.36945839543547154 11.960503393327622 17.576012755863722 0 0 -1
246 1 1.4558279077516239 11.943252355299846 17.564185011048032 0 0 -1
252 1 1.9974195936670442 11.583489499670513 0.6056428757591744 0 0 0
251 1 2.5747353441329768 12.608465257445134 0.5343086868854893 0 0 0
247 1 1.5392552622016435 12.626192289690728 0.5431395374104436 0 0 0
256 1 3.034699886823241 11.703970870179186 0.4535460004319235 0 0 0
260 1 4.1320940799709724 11.756376525355332 0.5019842686162539 0 0 0
255 1 3.6244183869966102 12.674853071235688 0.5235864141763807 0 0 0
254 1 3.515676970643324 12.083590948490333 17.563408354378794 0 0 -1
264 1 5.254617677172429 11.811875447034652 0.5821126151631023 0 0 0
263 1 5.8417369188340205 12.822260557751614 0.6068008983594979 0 0 0
259 1 4.694777362053061 12.68065497045367 0.6214361219401651 0 0 0
258 1 4.667230746357435 12.060904418414992 17.59911516574077 0 0 -1
268 1 6.336581656669653 11.687791102467324 0.5675066922486467 0 0 0
267 1 6.856886791571334 12.56621668225097 0.43054677681000253 0 0 0
272 1 7.47169529525151 11.739258008427079 0.4937715556633778 0 0 0
266 1 7.013424225812029 12.020325191612656 17.579061198925615 0 0 -1
276 1 8.58195367327109 11.806171903529016 0.5179719200836957 0 0 0
271 1 7.935610289274652 12.715873964926207 0.5503469737542864 0 0 0
270 1 8.090731043554928 12.05707124888928 17.562431831482627 0 0 -1
275 1 9.112680679349666 12.727992780171476 0.5447571979778065 0 0 0
280 1 9.600988925071828 11.6482653409798 0.6037792606909601 0 0 0
279 1 10.235176831845152 12.583947562975634 0.6591473728046384 0 0 0
288 1 0.9306867939895127 13.657439139923136 0.6094469981873912 0 0 0
284 1 -0.17115795238641324 13.599920872110813 0.5920935934191951 0 0 0
285 1 0.9762425778636219 12.950876909379001 17.562058691910707 0 0 -1
282 1 0.3909999741436405 13.984217234445971 17.60320535971465 0 0 -1
281 1 -0.08250166528502034 12.998330099963809 -0.29839901552259673 0 0 0
292 1 2.0660609708318343 13.537438393004168 0.5888700435110703 0 0 0
290 1 2.6337987606888906 13.922436620129961 -0.29911860750480423 0 0 0
286 1 1.444413690523695 13.799881751949396 -0.28560541484938284 0 0 0
289 1 2.0226681897761907 13.009840364483038 -0.32449266231903856 0 0 0
296 1 3.105825235771047 13.574076168475337 0.5254911387634115 0 0 0
300 1 4.110562416801905 13.763183341272038 0.5523052532544563 0 0 0
293 1 3.045846988565981 12.906317005509582 17.587575229252806 0 0 -1
304 1 5.237125651125697 13.696371783041936 0.6103373300504248 0 0 0
301 1 5.181961830853311 13.006906912393754 -0.3404436259671989 0 0 0
308 1 6.453284970912275 13.659082810124833 0.5102701188453524 0 0 0
312 1 7.476922923988467 13.58548969958794 0.5370101064160472 0 0 0
316 1 8.65452472835836 13.673457034294973 0.6104545307147096 0 0 0
314 1 9.081235387069139 13.922546723364162 -0.3417511172505437 0 0 0
313 1 8.41478327148008 13.022180855415082 -0.25976731593203467 0 0 0
320 1 9.733654389073376 13.62492959431971 0.6067597958806399 0 0 0
318 1 10.389331377994868 13.822749110667077 17.58481035506746 0 0 -1
317 1 9.717225592319586 13.0102924483848 -0.3128121031533587 0 0 0
283 1 0.3828557058278965 14.543936519836157 0.46657359019568734 0 0 0
328 1 0.9366046590898589 15.536075948736734 0.5636176011316272 0 0 0
287 1 1.4658406432146194 14.524250210444576 0.5862356552128942 0 0 0
291 1 2.573758057185846 14.506441875306376 0.5954453881164179 0 0 0
332 1 2.008334698066495 15.455596173108633 0.5639401441483313 0 0 0
326 1 1.4561975207392739 15.8198958957365 17.607099507459075 0 0 -1
329 1 1.94734687924973 14.852129486324344 -0.3370221585398165 0 0 0
336 1 3.0367570399504125 15.539011527003995 0.6186073024820223 0 0 0
295 1 3.570261148425154 14.569407433644978 0.6273370821377353 0 0 0
340 1 4.053772486758585 15.492026985513876 0.5660925608837234 0 0 0
333 1 3.034744409270901 14.868516226783909 -0.29903273903911 0 0 0
337 1 4.163559645440445 14.799606655177417 -0.27956638255696253 0 0 0
299 1 4.838925720119019 14.628125557483937 0.5332557270400907 0 0 0
303 1 5.867879067510071 14.521337820457397 0.5054897219866067 0 0 0
344 1 5.218589576423254 15.59768064714302 0.536667400336125 0 0 0
341 1 5.215322940329212 14.908956836538135 -0.33469428670064566 0 0 0
307 1 6.986390302431652 14.557606559686608 0.524764025115188 0 0 0
348 1 6.343337354003313 15.590850168758964 0.6172187862454944 0 0 0
352 1 7.392846752451633 15.604048078572442 0.5210161058987256 0 0 0
349 1 7.402211698112036 14.994957825527457 17.47524983432691 0 0 -1
311 1 7.939612511472839 14.415712479812164 0.4957578699149402 0 0 0
356 1 8.649698454703522 15.604926019787968 0.46875414537248705 0 0 0
315 1 9.068125356247052 14.613610296153484 0.632137396265133 0 0 0
324 1 -0.15165729970233865 15.466901794019604 0.44279165989796054 0 0 0
319 1 10.242017976054257 14.524895109640445 0.45031144934363876 0 0 0
360 1 9.758475374962483 15.413478100972677 0.47126995581296227 0 0 0
323 1 0.5402304419556108 16.671524379663428 0.5664058762251936 0 0 0
365 1 1.076062604731977 16.8274153603011 -0.2606791100697646 0 0 0
361 1 -0.14016150849411513 16.73511110712199 -0.30201994743328053 0 0 0
327 1 1.524221761317382 16.44567450781222 0.5244852933813244 0 0 0
331 1 2.7001973054201285 16.447494794465737 0.4528540839124131 0 0 0
330 1 2.546706205732859 15.784364492680076 -0.31367074505730264 0 0 0
369 1 2.062118191408206 16.73896591893171 17.570698075866815 0 0 -1
335 1 3.750614427939552 16.427575438720424 0.7147579166984086 0 0 0
377 1 4.26453868583802 16.820537919855372 17.606089866411885 0 0 -1
373 1 3.2280737747309822 16.82103306423631 -0.3228053093733863 0 0 0
334 1 3.568874991766567 15.736128846056335 -0.35106614656602536 0 0 0
339 1 4.780400103160895 16.556442011621655 0.6401945213994602 0 0 0
343 1 5.822079093623708 16.520580064963134 0.5112422840579913 0 0 0
342 1 5.631833797207907 15.828934187221346 17.56838596452758 0 0 -1
347 1 6.8785070353227535 16.477885360783134 0.5355550614798291 0 0 0
350 1 7.978290701464716 15.897135084478556 17.528851049353023 0 0 -1
351 1 8.1488553862672 16.38767911610067 0.4666275290339591 0 0 0
355 1 9.224714390180992 16.532154085111912 0.5423950150396147 0 0 0
354 1 9.230536333269413 15.88902483207351 17.51866093257268 0 0 -1
359 1 10.437609749022542 16.40169152675253 0.6402944801626111 0 0 0
397 1 9.77045412935745 16.82830768146046 17.591143205355355 0 0 -1
363 1 0.36427074983891605 18.492491349048006 0.479073823262684 0 0 0
368 1 0.9893708180420584 17.598371681699852 0.6261850162007261 0 0 0
364 1 -0.04966803536221931 17.497144190623164 0.6373781771546296 0 0 0
362 1 0.4436530650688131 17.73841800586447 -0.25596329085487424 0 0 0
367 1 1.4340764378558515 18.501135579251557 0.4223788001732829 0 0 0
372 1 1.9835393677999806 17.463680356505225 0.5842888657948702 0 0 0
371 1 2.4495847407126705 18.382991863396242 0.6147386641527953 0 0 0
380 1 4.038294470447137 17.387315231608007 0.5024254753480786 0 0 0
376 1 3.038858489700723 17.4563041405477 0.5048605829060444 0 0 0
375 1 3.644963423748121 18.479288856583302 0.6124256610375931 0 0 0
374 1 3.7017634876089303 17.762180754539834 17.552318461733826 0 0 -1
17 1 4.1781308313847285 -0.2633070513130258 -0.33667945124407384 0 0 0
379 1 4.639521775220413 18.347512306539265 0.6020931547969779 0 0 0
384 1 5.251216957947477 17.43134370401868 0.5071331670171132 0 0 0
383 1 5.8434900036213895 18.378424791503704 0.5903272403043375 0 0 0
392 1 7.4368192265628625 17.348013497485383 0.6551107711809356 0 0 0
388 1 6.263916949046723 17.514347092790732 0.5471511089518849 0 0 0
387 1 6.998832563150498 18.29513659439559 0.5878352336397816 0 0 0
396 1 8.423042422696511 17.30052122815124 0.4483897967179524 0 0 0
391 1 8.007075686247408 18.367503867823565 0.5805125670196934 0 0 0
395 1 9.004126023472008 18.192636775575295 0.46327894544692416 0 0 0
390 1 8.004841375547429 17.928670896719616 -0.3345452374593008 0 0 0
400 1 9.812873511789991 17.428204283362167 0.5472869678544383 0 0 0
399 1 10.289232543633101 18.341698392895445 0.5246969396475836 0 0 0
398 1 10.361026061702127 17.677179585937576 17.584319796862054 0 0 -1
402 1 0.2591474409232126 0.6814032185336394 1.4939092532933371 0 0 0
408 1 0.8245223164557596 0.2884303297578641 2.404805669677126 0 0 0
404 1 10.740783512006047 0.23266102069438832 2.4422469680989134 -1 0 0
405 1 0.9496565239692525 -0.33238053677382334 1.5647260562944079 0 0 0
401 1 -0.09598336748885156 -0.28784589654038006 1.4683738500627281 0 0 0
406 1 1.4300458538099274 0.6207320905857068 1.4691375477822586 0 0 0
410 1 2.552686072994124 0.7183580666452345 1.4239565349553711 0 0 0
412 1 2.047361615057894 0.25196373510408177 2.328727028811335 0 0 0
409 1 2.024995157802328 -0.24995676715979642 1.4767920851035594 0 0 0
416 1 3.0903776569668695 0.14584274333065939 2.31833992877633 0 0 0
414 1 3.58886143155091 0.6572219556020849 1.4022230080820375 0 0 0
420 1 4.163147907195597 0.12775419148604883 2.483831621014651 0 0 0
417 1 4.247390163962551 -0.30283431292568114 1.5384776845192656 0 0 0
418 1 4.8356413657537995 0.6496874398276511 1.4656710395360566 0 0 0
422 1 5.842768242698311 0.44842015397809043 1.5867788179686815 0 0 0
424 1 5.306279993732219 0.3614790741074497 2.4399875385259544 0 0 0
426 1 7.047420141602043 0.5712880423488328 1.5329952418816457 0 0 0
428 1 6.447992927071543 0.23705239027291114 2.4071373162438685 0 0 0
432 1 7.617282317879897 0.1660193491262939 2.4130805792453303 0 0 0
430 1 8.080619249156687 0.5688817027950583 1.376065926886593 0 0 0
436 1 8.648409867781496 0.2577385116870192 2.2417136965777797 0 0 0
434 1 9.205797297103157 0.5412543855206449 1.4205061530475946 0 0 0
438 1 10.246483216122034 0.5695986922176927 1.37029031677016 0 0 0
440 1 9.718783973696866 0.1901527494944224 2.214623015966826 0 0 0
437 1 9.664190672693426 18.639962390868362 1.392738373083053 0 -1 0
403 1 0.3343925094739938 1.2726361429281412 2.337961849090602 0 0 0
445 1 0.9805093886339284 1.6284941366826229 1.346726728228667 0 0 0
448 1 0.9819053605106802 2.184228035211031 2.2922706685186784 0 0 0
442 1 0.32601722767806784 2.502018721723924 1.4572442843955555 0 0 0
444 1 10.772317406571876 2.133224728110028 2.2985201496987937 -1 0 0
441 1 10.68222683845794 1.5682334262392148 1.4104403128652454 -1 0 0
407 1 1.4019952136385547 1.2093498217284009 2.2803733611469146 0 0 0
446 1 1.3603615983633495 2.5939110585590703 1.392406798789406 0 0 0
449 1 2.0692575916849827 1.6220363908851883 1.4719665449105734 0 0 0
452 1 1.970712253145892 2.184980744627542 2.348003810158504 0 0 0
411 1 2.556046662302249 1.2406719715416386 2.323196055093409 0 0 0
450 1 2.510698017530047 2.5395568317352186 1.3217664285276716 0 0 0
415 1 3.6633660355345503 1.2077620420129234 2.3176480305591496 0 0 0
456 1 3.0547996981423933 2.2343541545950045 2.410061852733592 0 0 0
453 1 3.1745757417725993 1.7216931086528597 1.4885897396542287 0 0 0
457 1 4.255802666894391 1.626500404702235 1.3988938316928399 0 0 0
460 1 4.2779476293848955 2.335406602104901 2.3012158250822954 0 0 0
454 1 3.7844447694743684 2.6198921091278313 1.4095546887070487 0 0 0
419 1 4.635894593880438 1.1608062848143992 2.3340619416098844 0 0 0
423 1 6.008558731510623 1.25912923151864 2.306966311314583 0 0 0
461 1 5.346036754108339 1.468789827742736 1.410602194550458 0 0 0
464 1 5.311550398913387 2.1242127604634056 2.2770974078004373 0 0 0
458 1 4.814779024496084 2.4799080970148033 1.3892799164650118 0 0 0
427 1 6.990746358772744 1.207820131239282 2.341966157827137 0 0 0
465 1 6.396968103290702 1.5122259838316021 1.4405077423629877 0 0 0
468 1 6.465248837246055 2.2820718982047694 2.356247956753169 0 0 0
472 1 7.599809162687415 2.14826816979796 2.3561793994441893 0 0 0
469 1 7.610456878421056 1.506430988033769 1.3828598563731151 0 0 0
431 1 8.142216483695886 1.2060217537253823 2.198892783945911 0 0 0
473 1 8.723762592689258 1.5106128061749347 1.352419340951467 0 0 0
476 1 8.78063930173158 2.177686675242424 2.131731073393436 0 0 0
470 1 8.060663108730907 2.4083495915487996 1.4133680576375178 0 0 0
435 1 9.307115359761553 1.1590531028204258 2.2032093611399937 0 0 0
439 1 10.331582215212109 1.2126973882941638 2.3840797416508663 0 0 0
477 1 9.656029809548812 1.6019521243679054 1.277420158939583 0 0 0
480 1 9.771925615225474 2.106698969492364 2.2291920076212897 0 0 0
478 1 10.297598912482876 2.652439806419244 1.3529600638198527 0 0 0
443 1 0.2756748309510352 3.1909222101203922 2.248015867388962 0 0 0
485 1 0.904164324541963 3.475911190247324 1.3759382756766398 0 0 0
481 1 -0.1367331280664637 3.514351128706772 1.4190514043537925 0 0 0
447 1 1.5863326074645432 3.096472685145497 2.3043109298988758 0 0 0
451 1 2.6191328039717976 3.159145933569619 2.3395167743534064 0 0 0
489 1 1.9418368669599002 3.4480576547929425 1.322097757964124 0 0 0
493 1 3.1029356478904995 3.3976101897034474 1.545076683142958 0 0 0
455 1 3.692797561928921 3.2312096815572873 2.3436756689253473 0 0 0
497 1 4.185142788804827 3.541279074972786 1.4548059563965323 0 0 0
496 1 3.130255411658483 4.091939243828241 2.3647052514396996 0 0 0
462 1 5.9091605763258634 2.4793545857172044 1.3183828113350136 0 0 0
459 1 4.841954544558857 3.239773414032269 2.2020880964814213 0 0 0
463 1 5.798195377373629 3.1204789585046266 2.2166008399859356 0 0 0
501 1 5.3911741370357875 3.491882825325534 1.2251222405253603 0 0 0
504 1 5.34267261361314 4.069985948387695 2.324763161056398 0 0 0
466 1 7.076542629513413 2.416688473256811 1.4951366045034469 0 0 0
467 1 6.950596219985328 3.180042364640385 2.312246404002838 0 0 0
505 1 6.428552031368135 3.3549796762497452 1.5230838585584032 0 0 0
509 1 7.424839939264728 3.5235359667385384 1.4833377901534168 0 0 0
474 1 9.277018314472542 2.642810061228421 1.4308098311025748 0 0 0
471 1 8.013575645567105 3.1305174231984942 2.288823715319134 0 0 0
513 1 8.684447010850239 3.4040774613114286 1.5147262379989126 0 0 0
475 1 9.063073873791524 3.130913610846439 2.4604342292542802 0 0 0
479 1 10.153050790227518 3.1161148950040687 2.414815223581511 0 0 0
517 1 9.787217944534888 3.5300722785134764 1.4753566647541656 0 0 0
488 1 0.9991778770961501 4.001908311584033 2.2470952611312875 0 0 0
482 1 0.41337027950959804 4.4176416670515986 1.403120653556175 0 0 0
483 1 0.2715234729623376 4.964918659664817 2.1987859626633153 0 0 0
525 1 0.8034926294617217 5.32899649101895 1.3340611257344992 0 0 0
521 1 10.681835799032058 5.310937904053243 1.3232225765321624 -1 0 0
492 1 1.97397192402391 4.035839082561524 2.3266201096481436 0 0 0
487 1 1.3857635768330598 4.952751294369724 2.3191367234660794 0 0 0
486 1 1.6015863434646949 4.425106469165578 1.4824162591440835 0 0 0
490 1 2.620418238652773 4.391390122170165 1.3471654618429134 0 0 0
491 1 2.4579526149242406 4.930785747612184 2.33985343272798 0 0 0
529 1 1.926682833387909 5.349843690514109 1.2745476516272787 0 0 0
500 1 4.220825140399608 4.035055584602485 2.4153360200402036 0 0 0
494 1 3.599957672918032 4.417776854728861 1.5416911340438504 0 0 0
495 1 3.598832143457617 4.994008548225034 2.4232081627584607 0 0 0
537 1 4.1888283275615645 5.2866195867784365 1.5942405460225855 0 0 0
533 1 3.126123820742781 5.340698865773887 1.3718980892815953 0 0 0
498 1 4.7957244730044195 4.3713187289113495 1.496517572870496 0 0 0
499 1 4.749821840827446 4.97545644926993 2.3836627783130937 0 0 0
502 1 5.81051285189175 4.359633290118258 1.4216015688175343 0 0 0
503 1 5.904252538015449 5.002021685643788 2.1975041618529847 0 0 0
541 1 5.284165628342785 5.303475277999028 1.5472824115900354 0 0 0
512 1 7.4279244742403066 4.083161086401998 2.4347533910120562 0 0 0
508 1 6.460282716384065 4.074759931730628 2.3939169751617584 0 0 0
506 1 6.900989080129169 4.345616414907334 1.4739409023873458 0 0 0
507 1 6.9662648446765205 5.243529960534951 2.230611304145008 0 0 0
549 1 7.459606384313404 5.1962966386625355 1.3884907406327944 0 0 0
545 1 6.340619117144655 5.456324031312307 1.3640991627923946 0 0 0
516 1 8.48994866099411 3.9973187974022597 2.3637090737543063 0 0 0
510 1 8.05851100844919 4.425940681408582 1.3800009607754395 0 0 0
511 1 7.990557255598618 4.999928050063231 2.30771610909406 0 0 0
553 1 8.54171652267766 5.299190427479461 1.3291892240714056 0 0 0
515 1 9.085152095863684 5.037126325439881 2.4484216635399454 0 0 0
514 1 9.08025802165977 4.423037885689949 1.5095642359250896 0 0 0
484 1 10.644899558077203 4.07820498824984 2.2586439608537052 -1 0 0
520 1 9.635998544778413 4.098227966318187 2.363269225174827 0 0 0
518 1 10.213608526663055 4.400102340154911 1.4161550584963807 0 0 0
519 1 10.136851034119992 5.002064122357294 2.283447601214737 0 0 0
557 1 9.527435202122891 5.289289614592267 1.4449374588445936 0 0 0
522 1 0.09959364182805214 6.150242848125452 1.4918501674156923 0 0 0
528 1 0.8608168909054443 5.8882804737734835 2.235642345615563 0 0 0
524 1 10.736741508781012 5.799133136389815 2.4472929208335077 -1 0 0
527 1 1.3788512464244325 6.795438516634219 2.3613160062451515 0 0 0
526 1 1.3431530982898294 6.34706638919509 1.4319420759760815 0 0 0
530 1 2.4365980930249624 6.187914767996685 1.4400494776157415 0 0 0
532 1 1.9969791809963535 5.906810794828016 2.267464468101123 0 0 0
536 1 3.09582453873004 5.875488931614034 2.285428790153235 0 0 0
534 1 3.6157731957471544 6.261025106266 1.3775008244805969 0 0 0
540 1 4.2442862825083045 5.982224331971091 2.3489795531106847 0 0 0
538 1 4.738321207068038 6.179516745455739 1.3505848591948393 0 0 0
544 1 5.326025543535827 5.965732220267948 2.371803636942288 0 0 0
542 1 5.83417249514193 6.3793230169917505 1.4900997484205787 0 0 0
539 1 4.846025601940822 6.839164547078503 2.1702126123128758 0 0 0
543 1 5.872792940493992 6.986894009897937 2.325971658246976 0 0 0
546 1 6.9593945998135 6.249030647592218 1.4382517647944033 0 0 0
548 1 6.371930281172742 6.052009858214044 2.257684676019766 0 0 0
552 1 7.504327165483645 6.049278984250838 2.368605922871071 0 0 0
547 1 6.937104906156595 6.995570747217075 2.5297766031384135 0 0 0
550 1 7.973554952614179 6.242837777933587 1.4697488912785808 0 0 0
556 1 8.574348899231559 5.987682838526446 2.340621545034982 0 0 0
554 1 9.112980123219547 6.222971391207616 1.5070391479750977 0 0 0
558 1 10.096612682473445 6.226709062756784 1.6026279310104754 0 0 0
560 1 9.600218544773352 5.952562691708036 2.447578206899622 0 0 0
559 1 10.166813208737192 6.881244200919058 2.490580573465915 0 0 0
523 1 0.2436630469743863 6.835942534566251 2.356242927418911 0 0 0
562 1 0.23831467449174898 8.131799618246555 1.5245345935867067 0 0 0
565 1 0.8123664450176495 7.206374913838115 1.3272465193500633 0 0 0
568 1 0.9732255671607337 7.940510372814725 2.3069596290651946 0 0 0
531 1 2.570117737505556 6.872774471307482 2.2453942345433497 0 0 0
566 1 1.3720687511152945 8.24475843676232 1.3326705788142788 0 0 0
569 1 1.8646670917067403 7.234739100182635 1.5098732387207414 0 0 0
570 1 2.562202850833255 8.111347540437782 1.2473395935690745 0 0 0
572 1 2.0876061213689994 7.9214169103358785 2.320286030580384 0 0 0
535 1 3.676232150387 6.886321686698553 2.3188918184985985 0 0 0
573 1 3.0158553124571763 7.216448422563376 1.3707917421011846 0 0 0
576 1 3.1949271104141306 7.801295323941783 2.399698145948346 0 0 0
574 1 3.5610847430232506 8.142244501891474 1.480592212648434 0 0 0
577 1 4.158896611970671 7.166587173016152 1.378571685063384 0 0 0
580 1 4.192408608577336 7.839242408885253 2.3635938982773057 0 0 0
578 1 4.7117655803002725 8.269490042516962 1.4431179042116595 0 0 0
581 1 5.3284785383258075 7.383094957297639 1.3609486972605704 0 0 0
584 1 5.306547672629122 7.975352513987421 2.3262620971652326 0 0 0
582 1 5.856375812919308 8.37370613866313 1.386111266359708 0 0 0
585 1 6.471392666930602 7.3796383626375786 1.546883679991465 0 0 0
586 1 7.027282372042876 8.338429539771365 1.4113051067887692 0 0 0
588 1 6.312434234019473 8.054175498744039 2.359937287195149 0 0 0
592 1 7.535766291290245 7.843516888456861 2.250328880150467 0 0 0
589 1 7.46525037856865 7.185347185923506 1.4351741597733119 0 0 0
555 1 9.125285137404088 6.9513393335265645 2.377373640167382 0 0 0
551 1 8.014687936191823 6.991162862326594 2.272976288533171 0 0 0
590 1 8.066583961743106 8.220288439723053 1.4491568230296346 0 0 0
593 1 8.660103398839333 7.204649000703815 1.5607909126645356 0 0 0
596 1 8.57600101896654 7.9127259852986125 2.2948858086125283 0 0 0
594 1 9.161835509256338 8.214604215211654 1.457808902397767 0 0 0
561 1 10.73748314873491 7.2001035778056846 1.2941889913731457 -1 0 0
564 1 10.730301366367062 7.807656811538402 2.353988741680313 -1 0 0
597 1 9.683854566793531 7.249404570130639 1.4946918915353593 0 0 0
598 1 10.193084147526065 8.072766722101264 1.4305650111846409 0 0 0
600 1 9.613614026695956 7.985234025384308 2.3254141602485126 0 0 0
563 1 0.3805418066131353 8.770663504741801 2.283264800858517 0 0 0
605 1 0.8603950960815976 9.09952004707826 1.502986627200193 0 0 0
608 1 0.8561310872664902 9.685150217858949 2.4831339232110254 0 0 0
604 1 -0.1831506789210753 9.77740159027114 2.247020660932825 0 0 0
567 1 1.5360018594683944 8.806279965818991 2.305065018510611 0 0 0
571 1 2.526252899923433 8.916937470271295 2.2429268959136506 0 0 0
609 1 2.0087406024031464 9.22002226082476 1.3450639329535616 0 0 0
612 1 1.9231230801696078 9.80636180105265 2.326428806841593 0 0 0
613 1 3.132609946969781 9.048063103896698 1.3338854053707763 0 0 0
575 1 3.541454838540572 8.775649472232638 2.4206851348905447 0 0 0
617 1 4.135050669545099 9.118004502517913 1.3184965006908338 0 0 0
616 1 3.0294765405931368 9.828371197993732 2.39018256338698 0 0 0
620 1 4.116551743891513 9.837868346672703 2.26508381720159 0 0 0
579 1 4.7484147702360415 8.872084235559687 2.2478636502313405 0 0 0
583 1 5.809907124733784 8.904650672905555 2.355410711837941 0 0 0
621 1 5.251910395537784 9.166971741597258 1.403660465485884 0 0 0
624 1 5.237195704434099 9.806978685073362 2.2603726063639327 0 0 0
587 1 6.973994639434667 8.907596706315914 2.2242702383813926 0 0 0
625 1 6.338212945213611 9.199102686776328 1.3823615037801242 0 0 0
628 1 6.499527815769989 9.73516643578752 2.272762935321723 0 0 0
629 1 7.56780028865108 9.231877811191877 1.4037551827025123 0 0 0
632 1 7.535477942415379 9.876229137106211 2.3656852548339447 0 0 0
591 1 8.039298838034398 8.841427538599039 2.397710697254573 0 0 0
633 1 8.58971316933864 9.1169232869863 1.386213137310471 0 0 0
636 1 8.66830259374104 9.727587742211051 2.2426791540633815 0 0 0
595 1 9.074272178476857 8.786360582560826 2.2979418058335632 0 0 0
601 1 -0.21702866727463288 9.040209162677794 1.4131818930306372 0 0 0
599 1 10.322629562790247 8.88681923795121 2.4110020271805257 0 0 0
637 1 9.74002178046634 9.149172875103512 1.498041982293814 0 0 0
640 1 9.742047438081691 9.781386867903867 2.302513166922005 0 0 0
602 1 0.44840913157120643 10.005317930791357 1.5601283620013056 0 0 0
603 1 0.21934626881209324 10.738978997561562 2.3385800895661637 0 0 0
645 1 0.8245455685501835 10.911619848231183 1.2884829746941704 0 0 0
606 1 1.4659706359916282 10.1227774592479 1.3462383906525783 0 0 0
641 1 -0.1764076009480551 10.96204041602355 1.3517597767508729 0 0 0
607 1 1.221855183759576 10.675866246426892 2.3521056367554034 0 0 0
610 1 2.5281610754788897 10.076677196273641 1.4793509434439993 0 0 0
611 1 2.516881861165586 10.753814121124753 2.4007479872365884 0 0 0
649 1 1.878651887829791 11.17361171376593 1.6424353146905633 0 0 0
653 1 3.0919533084927986 10.993407636540828 1.40995866298626 0 0 0
614 1 3.5508677946937652 10.091201998068298 1.5397860511261527 0 0 0
615 1 3.6321698181406683 10.72028897594428 2.410012938636984 0 0 0
657 1 4.128462999104894 11.145145911185438 1.4251475561704021 0 0 0
618 1 4.736495873171337 10.084015512347365 1.4072470676519393 0 0 0
619 1 4.612502410531689 10.821604053419133 2.3584427543941064 0 0 0
622 1 5.876888877071551 10.135148966099562 1.4783068189369624 0 0 0
623 1 5.7699218153193605 10.720438883147503 2.386055253293446 0 0 0
661 1 5.270954938872197 11.052894690769172 1.529895082072833 0 0 0
626 1 6.91067162825375 10.056447043629303 1.3917505485027533 0 0 0
627 1 7.011061722898948 10.725406832356635 2.1995526815600037 0 0 0
665 1 6.337105109855748 11.055066517605717 1.4720651579981623 0 0 0
669 1 7.537974501143745 11.042306942001973 1.4078279213747968 0 0 0
630 1 8.094311515305343 10.194444676333644 1.3220122033565413 0 0 0
631 1 8.155102812323214 10.749621194106858 2.2507642910742196 0 0 0
673 1 8.659408701119776 11.033632430110021 1.458353787421188 0 0 0
634 1 9.227740285524902 10.013510037996179 1.370113013145318 0 0 0
635 1 9.195777205834567 10.660521875963598 2.3141896803495636 0 0 0
638 1 10.26061336342903 10.073859438441104 1.2964725944175055 0 0 0
639 1 10.294082358627264 10.6835275166094 2.2372623160575937 0 0 0
677 1 9.774787697752508 10.960976419081062 1.386927834870627 0 0 0
642 1 0.35835496819543144 11.856923621034209 1.3593299719180416 0 0 0
643 1 0.21126461599501378 12.56552383881862 2.2918294124338146 0 0 0
648 1 0.8099914225743949 11.634595253342278 2.390245428092908 0 0 0
646 1 1.2848100827738367 12.050672258031701 1.362759456671965 0 0 0
644 1 -0.21374693333641304 11.669707297273938 2.2728414414649962 0 0 0
647 1 1.3709305973752772 12.708495532920523 2.3346065007384214 0 0 0
650 1 2.5355922497665615 12.069953476283953 1.4111716544330308 0 0 0
651 1 2.534077345806077 12.602264752195461 2.292637050091177 0 0 0
652 1 1.871677522108668 11.731613095381846 2.418628915790888 0 0 0
656 1 2.927502285367922 11.619416669953825 2.254063343488534 0 0 0
654 1 3.5742400116227615 12.012763450745688 1.3603213341187723 0 0 0
660 1 3.947072753080901 11.642127005052913 2.3313064570101085 0 0 0
655 1 3.556887090224338 12.69339417405057 2.303228465781183 0 0 0
658 1 4.695555133225069 12.094671763825374 1.498128082088803 0 0 0
659 1 4.682152862095004 12.673662443038811 2.3774739223868275 0 0 0
662 1 5.722717616595641 12.167200063998 1.420875455747521 0 0 0
664 1 5.33467471164451 11.698402915049103 2.3263067876081127 0 0 0
663 1 5.802157319925433 12.697773318444847 2.3218424922172876 0 0 0
666 1 6.955905103651214 11.942109529552601 1.4179232751962725 0 0 0
667 1 6.944594866037643 12.717646813852602 2.3182816118922673 0 0 0
668 1 6.468018652770953 11.557120646512956 2.3812175776063143 0 0 0
672 1 7.5698276539249445 11.726230794183193 2.2167478121406012 0 0 0
670 1 8.065835237645185 11.958558474328346 1.3708415193271977 0 0 0
671 1 7.987907942457679 12.645310526539413 2.3042310134590456 0 0 0
676 1 8.560197593026743 11.746249148538395 2.30406458198738 0 0 0
674 1 9.002498994444359 12.029349739956638 1.4092907848393792 0 0 0
675 1 9.116782686233101 12.62404409198695 2.350665908321053 0 0 0
678 1 10.253904439253457 12.031672557919181 1.4937105615998907 0 0 0
680 1 9.64995806804582 11.69535786747157 2.245300781462245 0 0 0
679 1 10.165478233538224 12.704422536708833 2.437387550816961 0 0 0
685 1 0.8746147380198417 13.106218308407104 1.4951810462082655 0 0 0
682 1 0.3891825599545955 14.007044088420802 1.5550124814799862 0 0 0
688 1 0.8127021000237475 13.515308233939534 2.411622226104256 0 0 0
686 1 1.5300414613337787 13.866811312540685 1.4455276624489766 0 0 0
681 1 10.780517337005307 12.930905839734622 1.4369548336900269 -1 0 0
689 1 1.9471207243995208 13.00333494311284 1.4592499310529812 0 0 0
690 1 2.5680385574608677 13.984729440870542 1.5245612774595847 0 0 0
692 1 2.002066396283634 13.581574774077174 2.4101400466859206 0 0 0
693 1 3.0328422511224034 12.945406362097664 1.3848067079985655 0 0 0
696 1 3.01668653082413 13.56222282731424 2.269640478205126 0 0 0
697 1 4.101955098174147 13.052287504623605 1.3924407995262713 0 0 0
694 1 3.5708836541550455 13.979592913679864 1.490547618828127 0 0 0
700 1 3.9924045005671713 13.568357506690013 2.3544193431925513 0 0 0
701 1 5.1879010179597405 13.061344314235825 1.5318984172660686 0 0 0
698 1 4.719344582671093 13.930941120678485 1.4536914993741405 0 0 0
702 1 5.90351968344223 13.948798835692386 1.3407105880837666 0 0 0
704 1 5.197212114475617 13.561807118635526 2.496602640496087 0 0 0
705 1 6.410253850820712 12.926539457719002 1.413380267181818 0 0 0
706 1 6.94632272640277 14.036801051218411 1.3843130022277708 0 0 0
708 1 6.392261609521088 13.61508557156618 2.3761218669400614 0 0 0
712 1 7.5262824287348735 13.635787665350321 2.3201009563316775 0 0 0
709 1 7.4606931372006144 13.017500909548971 1.4920494761371874 0 0 0
713 1 8.573714995686952 13.052376994370666 1.3901365311252247 0 0 0
710 1 7.966388033772671 13.925669427601612 1.4838556195094914 0 0 0
716 1 8.621493944052357 13.503382123998101 2.352217031762277 0 0 0
714 1 9.006280010232171 13.939764046938611 1.5209077410959198 0 0 0
684 1 10.748103909847778 13.668866064398268 2.4521267961930335 -1 0 0
717 1 9.614021004049345 13.006539795145198 1.5182554849975125 0 0 0
718 1 10.303197996576042 13.870097902881696 1.4668416303826164 0 0 0
720 1 9.67385309798799 13.647794772063364 2.2743448535187603 0 0 0
683 1 0.40411705877715753 14.566781160354552 2.513526575034854 0 0 0
725 1 0.8200916050069815 14.946025553474415 1.50740357018123 0 0 0
728 1 1.0022069094815533 15.34794062122352 2.4697169586867505 0 0 0
721 1 10.777750532298061 14.876297373302165 1.3179824694156785 -1 0 0
724 1 -0.1346956698200369 15.341269568396912 2.2147987190337703 0 0 0
687 1 1.404165072473699 14.421549667013608 2.313281111810515 0 0 0
691 1 2.401824175922788 14.624777539931845 2.412146975518885 0 0 0
729 1 1.8873092935479945 14.937560217839508 1.6005354899838518 0 0 0
732 1 1.9299890740538639 15.638531564057505 2.3032856180107637 0 0 0
726 1 1.2158360846565073 15.80865049277065 1.5060181326425424 0 0 0
730 1 2.3397012847464893 15.909062912398252 1.3949497658245733 0 0 0
733 1 3.0759469488749067 14.93828763428387 1.4377905413561218 0 0 0
736 1 2.899852643515099 15.460078133897602 2.3960878614771115 0 0 0
695 1 3.4533720308927642 14.487435802456098 2.3920127240501117 0 0 0
737 1 4.156959720892526 14.830939912063583 1.538974458084702 0 0 0
740 1 3.97711204089309 15.475153684322953 2.3612840676074116 0 0 0
734 1 3.418889340430656 15.852315028569183 1.5286920745374255 0 0 0
699 1 4.7158233278083594 14.391603484072286 2.370062037354316 0 0 0
703 1 5.813793412992303 14.622422824530346 2.4383776660881216 0 0 0
741 1 5.329832791437823 14.83071728811277 1.4914719770760008 0 0 0
744 1 5.195914093854963 15.442092522182019 2.340669932566665 0 0 0
738 1 4.545532520518556 15.726300978415836 1.5305790759662423 0 0 0
742 1 5.700889240128388 15.828575538622726 1.423280727931372 0 0 0
707 1 6.949746887864732 14.596341289548596 2.362280993819718 0 0 0
745 1 6.433700589428474 14.90339338111171 1.4854152295258014 0 0 0
748 1 6.402069726220204 15.472891747049179 2.270471061335171 0 0 0
749 1 7.552670063142453 14.943200457667949 1.3531663626614756 0 0 0
752 1 7.510319872892296 15.407203557483491 2.211963123592535 0 0 0
746 1 6.822858168131085 15.899918919201241 1.3760768467530846 0 0 0
711 1 8.137110094538517 14.46019880745612 2.343246744802083 0 0 0
753 1 8.582653604793208 14.9079498679711 1.5208141114439622 0 0 0
756 1 8.604520297682711 15.470711375938588 2.3924377539522066 0 0 0
715 1 9.339092883621518 14.669024121853916 2.4852292974178796 0 0 0
754 1 9.183886012054707 15.781004999996536 1.4882602292692482 0 0 0
719 1 10.25832850692603 14.533905082727467 2.3018284479165247 0 0 0
757 1 9.723386646477032 14.710269249152855 1.4676737605218857 0 0 0
760 1 9.899488344947077 15.49349599834022 2.327304910622621 0 0 0
722 1 0.21936623329268995 15.895794282917642 1.2980590028235246 0 0 0
723 1 0.29445740014559996 16.417281773031895 2.2641329938867303 0 0 0
765 1 1.0291770880817528 16.86846185052694 1.4159773607800354 0 0 0
727 1 1.4853986990213746 16.540232407060586 2.377597140642419 0 0 0
761 1 -0.00533792243840811 16.85379965539157 1.4917720712396652 0 0 0
731 1 2.6378279631579433 16.436206856028452 2.4763872320728897 0 0 0
769 1 2.196153038901308 16.992868608648433 1.4551084746007075 0 0 0
773 1 3.114974751658297 16.863889525524193 1.462172292499814 0 0 0
735 1 3.5934707880702836 16.469832590631874 2.3131215820211386 0 0 0
777 1 4.23844436841813 16.85284865766211 1.4860773495067567 0 0 0
739 1 4.786480066405001 16.33982121378683 2.358406131082708 0 0 0
743 1 5.832155766746495 16.484157310885386 2.2222257605020443 0 0 0
781 1 5.2415219948506895 16.816877849025072 1.5092330663841977 0 0 0
747 1 6.911934743005632 16.40842631187169 2.3460839635641997 0 0 0
785 1 6.484027306005349 16.84581040169838 1.4002230008803969 0 0 0
789 1 7.450102266746464 16.69194381987233 1.4387795001782975 0 0 0
750 1 8.049572620469455 15.810931921307468 1.3944524134378053 0 0 0
751 1 8.007309535447245 16.25410131953447 2.291970185487133 0 0 0
793 1 8.656060776337437 16.645711777439807 1.4644879750032138 0 0 0
755 1 9.200880484887332 16.309321638908006 2.353715112677198 0 0 0
758 1 10.202294365781821 15.853654791011028 1.4075899786388126 0 0 0
759 1 10.28840366954929 16.46003176630914 2.343296873584021 0 0 0
797 1 9.894539300946327 16.82573993188507 1.4200496141473944 0 0 0
762 1 0.40774216877607194 17.82105801593018 1.5421753281845294 0 0 0
763 1 0.37673034850764897 18.316764944309174 2.4042898676482922 0 0 0
768 1 0.8853962786323588 17.333204696712578 2.4056106522067715 0 0 0
767 1 1.4570085719952048 18.40226559314577 2.4246667818414624 0 0 0
766 1 1.5895419836668925 17.819912952148186 1.4591466073104966 0 0 0
771 1 2.5126649057231134 18.4022672937472 2.394265138676773 0 0 0
772 1 2.082682897543358 17.50392796582179 2.4466189331664636 0 0 0
770 1 2.654370336540998 17.952349639580024 1.5255654317222327 0 0 0
413 1 3.080107945261968 -0.22603303306753236 1.4174148730824205 0 0 0
776 1 3.111409533153987 17.458986564871104 2.3584648788401004 0 0 0
774 1 3.652676211831811 17.82173404337091 1.425401270993118 0 0 0
775 1 3.6651050765294335 18.348871865566785 2.346260792352764 0 0 0
780 1 4.281665500429839 17.377413220536184 2.398422931751481 0 0 0
421 1 5.30754538695699 18.65485519582506 1.4481626283991258 0 -1 0
778 1 4.699425986093844 17.746369853715347 1.4370545697012052 0 0 0
779 1 4.723565149392842 18.318300737520424 2.3624014854861843 0 0 0
782 1 5.864259515053311 17.6840790091236 1.47078144684903 0 0 0
783 1 5.891302794892882 18.424461541124355 2.315766308512612 0 0 0
784 1 5.322336436090048 17.462539779510497 2.253153893285011 0 0 0
425 1 6.513263920234712 18.62288263234763 1.4776948647394448 0 -1 0
429 1 7.641557202363174 -0.3494177491097077 1.4526896705599635 0 0 0
786 1 6.939225447754369 17.73030285627883 1.461299376097739 0 0 0
787 1 6.9747607753800125 18.31352412633433 2.394817858304308 0 0 0
788 1 6.325697042911339 17.395193729459766 2.294555249917413 0 0 0
792 1 7.442840895848246 17.298558346319904 2.281941295606232 0 0 0
433 1 8.652126447745111 -0.3405618809290286 1.3582650319280185 0 0 0
790 1 8.018776507328113 17.662249008105256 1.4509064943648329 0 0 0
791 1 8.19388804743706 18.332766444863704 2.2587773253265317 0 0 0
796 1 8.702770249404825 17.177325754837053 2.3209496408096024 0 0 0
794 1 9.09177901927794 17.58221001573128 1.3772276740410145 0 0 0
795 1 9.227761189948819 18.334341958153924 2.2366944191748144 0 0 0
764 1 -0.12253024548284207 17.429692352657668 2.3411005319152376 0 0 0
798 1 10.350440093657898 17.689801335812593 1.369726164922156 0 0 0
799 1 10.298362100307195 18.326431442360505 2.325846331167487 0 0 0
800 1 9.747777199601334 17.436607263650206 2.2463799048747823 0 0 0
802 1 0.3293192841878333 0.4145800813510784 3.3462947053934875 0 0 0
808 1 0.9177518593004237 0.3245450890734014 4.176330128752481 0 0 0
804 1 10.65061015920838 0.17481279752006162 4.261564143155358 -1 0 0
801 1 10.780736900551165 18.633303239453124 3.281410590174675 -1 -1 0
806 1 1.4941148853869863 0.5387633021877121 3.1920209395333266 0 0 0
810 1 2.63071791808876 0.6257017917729655 3.1836611709715816 0 0 0
814 1 3.65046418660305 0.548651819191411 3.292218558774643 0 0 0
816 1 3.171372071822385 0.20828953134478512 4.178154026601406 0 0 0
818 1 4.624832645034709 0.5232654326813105 3.2874079728759815 0 0 0
822 1 5.837814437079625 0.5117531034140473 3.3048315032400053 0 0 0
826 1 7.072867398121898 0.6368101747306185 3.2576439522257687 0 0 0
830 1 8.118226498447608 0.5539398532023295 3.270609004748872 0 0 0
834 1 9.202941275524594 0.575861453451508 3.126999756902202 0 0 0
836 1 8.62393578405014 0.31262614876136474 4.15638303251844 0 0 0
838 1 10.289768804259317 0.540970962684696 3.364021100878879 0 0 0
837 1 9.795934390452949 -0.36658011141662195 3.278898517905514 0 0 0
840 1 9.582306210131168 0.21078759554804827 4.126393722559023 0 0 0
845 1 0.8314119244229761 1.4447729740964588 3.1601420352619316 0 0 0
841 1 10.775486026974942 1.637595923949501 3.280024020021974 -1 0 0
844 1 10.782775201297579 2.199977132567662 4.140465778128709 -1 0 0
849 1 2.0364556866257986 1.5937608796762825 3.2380326034344074 0 0 0
846 1 1.4871079453777012 2.6184738085203234 3.1663876306741154 0 0 0
850 1 2.580795290632851 2.4477569193752164 3.279337358183738 0 0 0
811 1 2.6321408693602693 1.0724396543016959 4.171053955746702 0 0 0
807 1 1.4857227765887184 1.221177683819132 4.003103140125254 0 0 0
853 1 3.0968500589609618 1.5431715835865136 3.2574450528795156 0 0 0
857 1 4.181449676550118 1.4360538367744125 3.30404198185386 0 0 0
854 1 3.665089194235541 2.3551228050745583 3.3447375348218147 0 0 0
815 1 3.724474168353207 1.0565065427365 4.191718209785168 0 0 0
860 1 4.051943752386903 2.1254906619678082 4.2490622298944905 0 0 0
861 1 5.279929285089703 1.4485781634428392 3.184526749065943 0 0 0
819 1 4.7337353337506505 1.1386489945293798 4.167738526192498 0 0 0
865 1 6.4597520608489924 1.5419619148418595 3.155331954785381 0 0 0
866 1 6.965144136165531 2.5603955809018437 3.1501582717355356 0 0 0
869 1 7.509894165588735 1.528683395438751 3.18619697435302 0 0 0
872 1 7.515121824914135 2.223999098730796 4.073176090896513 0 0 0
827 1 7.016504572116798 1.324504336979372 4.226805632254622 0 0 0
868 1 6.442610148552267 2.1490492328478528 4.056712191550741 0 0 0
873 1 8.621055147459199 1.6080067986591118 3.147445171382856 0 0 0
870 1 8.081333493087108 2.5980920863490256 3.209836815449869 0 0 0
876 1 8.549139157136828 2.1734163762285044 4.069035862884984 0 0 0
874 1 9.18743909451264 2.472761328904536 3.1832192161260244 0 0 0
877 1 9.764433142008365 1.4931484312449104 3.175946170269331 0 0 0
839 1 10.385397997172017 1.2735596485562581 4.102828795418362 0 0 0
878 1 10.191770059995896 2.521762594997839 3.2038279029287944 0 0 0
842 1 0.4148259337966711 2.512749457545348 3.156582172246309 0 0 0
885 1 0.8165246246732991 3.450588890958569 3.153788143089616 0 0 0
881 1 10.731448103774397 3.3879730960127903 3.2123364042301397 -1 0 0
889 1 2.0408684530526062 3.4375598635328695 3.202234968423987 0 0 0
847 1 1.438713138559495 3.240762033084795 3.998096291108361 0 0 0
893 1 3.056660381155364 3.497336980745912 3.243776273475012 0 0 0
897 1 4.262531696743643 3.371431581747774 3.211240313552369 0 0 0
855 1 3.580725394783849 3.0427234880986562 4.157090988589923 0 0 0
858 1 4.74592342675705 2.3358989822303364 3.2562804431357986 0 0 0
862 1 5.81793349563216 2.412651070224994 3.0861222907709314 0 0 0
901 1 5.381160446626451 3.3426662766258852 3.2217840434431966 0 0 0
859 1 4.6813919466276745 2.9868844762025253 4.052829371631784 0 0 0
863 1 5.887042286353847 3.0776639612015475 4.04817626176435 0 0 0
905 1 6.406104766993851 3.459791694655323 3.2094557306291596 0 0 0
867 1 6.889439931989907 3.1668653186741165 4.076357344066276 0 0 0
912 1 7.517172638714755 4.131514310903969 4.23722020788103 0 0 0
909 1 7.441179128243109 3.454738216901537 3.279680734998126 0 0 0
913 1 8.503480319511773 3.5009521685909712 3.270558329107201 0 0 0
871 1 8.032200880900731 3.1151376111286715 4.262345083572063 0 0 0
917 1 9.690048409938711 3.412660144655695 3.316624995255348 0 0 0
888 1 0.7332843592578977 4.052142746491332 3.995716866156159 0 0 0
882 1 0.4042064405231375 4.36039354435235 3.066144839362012 0 0 0
925 1 0.7382639949788385 5.269913184056225 3.115972298043961 0 0 0
886 1 1.4396053840958645 4.271586315576647 3.2963800146385664 0 0 0
892 1 1.9510169519361975 4.018510168179834 4.165447521926116 0 0 0
890 1 2.441568691982266 4.478465093736678 3.1704698407981713 0 0 0
929 1 1.9159572450396447 5.3394488282265264 3.1087033604704764 0 0 0
933 1 3.171012244354446 5.241291304927855 3.1849214449302523 0 0 0
894 1 3.713042348427537 4.248141482155199 3.2928540198516476 0 0 0
937 1 4.224415508203293 5.313947059741287 3.217817353248684 0 0 0
895 1 3.6924805025993694 5.019087516816421 4.089669846569075 0 0 0
898 1 4.728913213915947 4.366800340531026 3.22129342311502 0 0 0
902 1 5.881707490345145 4.452320373374456 3.2665037010204605 0 0 0
941 1 5.230871188425879 5.430940269422536 3.2308919584990594 0 0 0
904 1 5.097688548191989 3.977014059301381 4.091413701042839 0 0 0
906 1 6.8383869117242675 4.5057057507113 3.2158677084528287 0 0 0
949 1 7.463033817747529 5.374572192723369 3.16136598671081 0 0 0
945 1 6.343991122580778 5.391518161175303 3.120530196455736 0 0 0
916 1 8.60216321031647 4.189174528337014 4.192718239783943 0 0 0
910 1 7.940021633996985 4.484283088664326 3.319492714962191 0 0 0
914 1 9.103643841447642 4.3196543515070065 3.2763600763245853 0 0 0
953 1 8.532601414331214 5.32417485023393 3.321942335355545 0 0 0
911 1 8.09078669616493 5.169417878696754 4.256019690758208 0 0 0
921 1 10.760245934225257 5.249607685004531 3.19803624788686 -1 0 0
915 1 9.156292370858154 5.028278065758269 4.207604992087458 0 0 0
918 1 10.254338127753247 4.350083468986312 3.1364604173933888 0 0 0
957 1 9.681064658742557 5.302965403098803 3.223260357615151 0 0 0
922 1 0.281780663521333 6.257731198461128 3.2367176361422163 0 0 0
924 1 -0.15720731333385157 5.95132011659454 4.22404637328538 0 0 0
926 1 1.281292287851533 6.312090879429338 3.286715204788455 0 0 0
930 1 2.4886350469463543 6.19041323874792 3.1546420717210553 0 0 0
934 1 3.604380527974378 6.205987981453473 3.1353861060111425 0 0 0
940 1 4.040202967153301 5.929357678468181 4.029588071865274 0 0 0
936 1 3.0856374260972017 6.033210944828984 4.0045600827325 0 0 0
938 1 4.788025299647196 6.25393367416786 3.2424647371925714 0 0 0
942 1 5.861026538476022 6.387916488159298 3.2404122422885844 0 0 0
946 1 6.9976355676911295 6.3008107422177675 3.2656027878580423 0 0 0
952 1 7.461790731256675 5.981112703343673 4.15438466706078 0 0 0
948 1 6.283007451622801 5.9807470824854585 4.131958772522385 0 0 0
950 1 8.10752048386447 6.262238430777209 3.30262030815436 0 0 0
954 1 9.223462638421605 6.2792282527481795 3.3499169744696227 0 0 0
951 1 7.944005093892877 6.874508538904326 4.245360229468091 0 0 0
958 1 10.254233767204248 6.234076263128016 3.2899670589538235 0 0 0
962 1 0.23521606597338102 8.176778645828563 3.195669721404915 0 0 0
965 1 0.8728191504623939 7.2267987218430205 3.1483413688517876 0 0 0
923 1 0.34114211432851105 6.897241074196396 4.052959047728347 0 0 0
968 1 0.8691369188657796 7.783246556262277 4.058853007778583 0 0 0
966 1 1.4721011524675114 8.233234320873951 3.272053779369488 0 0 0
969 1 1.9906679568498116 7.283009627996548 3.169550040291627 0 0 0
970 1 2.6278231377860704 8.142926392953685 3.2531592314544624 0 0 0
973 1 3.146820866756384 7.164766273747092 3.256474573741047 0 0 0
974 1 3.659709082655313 8.043769679787172 3.296660668208185 0 0 0
977 1 4.207317813090626 7.128803526365292 3.120262338795236 0 0 0
980 1 4.200186518114954 7.871318958062206 4.215701210088422 0 0 0
943 1 5.764951013420668 6.929683004689452 4.120858568814338 0 0 0
978 1 4.726915592085221 8.141858520028071 3.1681547499415563 0 0 0
981 1 5.178903382986521 7.2811553134948745 3.1826930356876613 0 0 0
982 1 5.809711453335423 8.273273503363846 3.2013001029304156 0 0 0
984 1 5.276606235875393 7.838192975758437 4.181223574589704 0 0 0
985 1 6.262619249901707 7.394424865774127 3.1623014259934137 0 0 0
986 1 7.039293923055613 8.182491208520567 3.3168719028942637 0 0 0
989 1 7.615914704435035 7.278952056490886 3.2455277584674076 0 0 0
988 1 6.275882490249646 7.868095005703681 4.052964204136011 0 0 0
992 1 7.570273422139087 7.8334563126501955 4.110457138450212 0 0 0
993 1 8.658060605829299 7.153751213676794 3.202789718938315 0 0 0
990 1 8.155346549090183 8.173913707677709 3.282718438354045 0 0 0
994 1 9.214272262215651 8.195602898272979 3.2140729989251304 0 0 0
996 1 8.697273569511342 7.855825285111795 4.1078638458440215 0 0 0
955 1 9.1966088628797 7.043713494149172 4.147472931907671 0 0 0
961 1 -0.21461990640471565 7.183033620565852 3.216067068202085 0 0 0
997 1 9.77524385638258 7.282116842744435 3.294427706212429 0 0 0
998 1 10.243044623521822 8.313531588006343 3.230988435271993 0 0 0
1000 1 9.764970470986018 7.983006694433614 4.087151449327929 0 0 0
1005 1 0.8732862484396577 8.94726382101462 3.155963269088371 0 0 0
963 1 0.31923418315419594 8.725849995928586 4.034809120810488 0 0 0
1004 1 10.764798713397543 9.793796812188798 4.240134035279289 -1 0 0
1009 1 2.08177108541216 9.121351938635858 3.357048026045889 0 0 0
967 1 1.3920073183100778 8.779977110404811 4.112188808893482 0 0 0
1013 1 3.197943604323562 9.133770830993925 3.305347107589976 0 0 0
1017 1 4.188662356488362 9.066645350381359 3.192414051860792 0 0 0
1021 1 5.281989714621746 9.122931885945867 3.28355818975158 0 0 0
983 1 5.844727526530972 8.863310483223545 4.106238068702085 0 0 0
1024 1 5.332863443757605 9.75736929115091 4.119847882748589 0 0 0
1025 1 6.47406692185772 9.17520907665393 3.283849027231978 0 0 0
1029 1 7.4899894853315026 9.218835797578958 3.2883710274569324 0 0 0
1032 1 7.452467634138482 9.798755580379975 4.130272965356497 0 0 0
987 1 7.150265726947954 8.739798502822365 4.110219590309268 0 0 0
1033 1 8.645006778889773 9.231353446968344 3.2218177017651333 0 0 0
1036 1 8.597994216493962 9.836495701582587 4.073463465160134 0 0 0
995 1 9.158314169150646 8.887074842247062 4.046109337488362 0 0 0
991 1 8.167093656238947 8.83422209796609 4.086920377488802 0 0 0
1001 1 -0.18293597357622426 9.23553932348535 3.2499553501329252 0 0 0
1037 1 9.62195221749517 9.097023128819908 3.1163732000132436 0 0 0
1040 1 9.70248402784227 9.733407302008482 4.159572815378317 0 0 0
1002 1 0.281732503188731 10.136896857372076 3.3608300655749086 0 0 0
1045 1 0.8534497444249738 11.055789374037737 3.3566077387417566 0 0 0
1041 1 10.721218178700845 11.038252511059685 3.2532472641202506 -1 0 0
1006 1 1.496915843197512 10.087559093742057 3.2781871834450356 0 0 0
1010 1 2.592360161517001 10.076392269204202 3.2444116163479215 0 0 0
1049 1 1.9352692071939992 11.059395546768748 3.2515433809075525 0 0 0
1011 1 2.427373907931523 10.756450253322708 4.140417974566729 0 0 0
1007 1 1.4185600298022025 10.772800006401434 4.211689677661995 0 0 0
1053 1 3.0188383931506206 11.035463164621447 3.2744433915568303 0 0 0
1014 1 3.619471885933347 10.051563060337395 3.1954295788574947 0 0 0
1057 1 4.191630716540899 11.026037500911732 3.3154713758359824 0 0 0
1022 1 5.790533169299365 10.090445428776734 3.152109316118 0 0 0
1018 1 4.622782753981681 10.060560927010528 3.256621393274667 0 0 0
1061 1 5.231764316576711 11.073367053550147 3.221233427010957 0 0 0
1019 1 4.7802921146700585 10.67667219078654 4.089199410772163 0 0 0
1023 1 5.826963110350976 10.724026084274895 4.012652782878649 0 0 0
1026 1 7.038194265564098 10.178954125505651 3.173136013368633 0 0 0
1065 1 6.371045338890845 10.96341194582548 3.2499613491836272 0 0 0
1069 1 7.481095061424881 11.040667560480024 3.2940299321276534 0 0 0
1027 1 7.016861300737873 10.769706922351203 4.114694840059929 0 0 0
1030 1 8.057985127599448 10.115777601183101 3.163210128149187 0 0 0
1073 1 8.55811347138054 11.08106920505226 3.1986167331927855 0 0 0
1034 1 9.236912135763546 10.0805109807173 3.1792356335003054 0 0 0
1031 1 7.973160914805651 10.675328550047698 4.141871749713017 0 0 0
1035 1 9.131171340938693 10.759056524100465 3.9825588894406696 0 0 0
1038 1 10.247404068911614 10.121692594979333 3.275227837460964 0 0 0
1077 1 9.716294681749343 11.101495551736003 3.13295011385418 0 0 0
1042 1 0.23539041813590844 11.88876037874085 3.3017161737797593 0 0 0
1044 1 10.76046389929818 11.7161990939423 4.16148149273534 -1 0 0
1046 1 1.3522461515160562 11.913286109528762 3.2948101891086603 0 0 0
1050 1 2.491974419756016 11.901878240139427 3.274797035033813 0 0 0
1052 1 2.0507288332413047 11.736267956295853 4.168903001221161 0 0 0
1054 1 3.591592576263829 11.923163464852387 3.3443444522772396 0 0 0
1060 1 4.276977720948979 11.670923797916673 4.123461349725343 0 0 0
1058 1 4.778653548835087 11.909465344152922 3.3142432154374637 0 0 0
1062 1 5.778753159039256 12.046246199465514 3.240611522151389 0 0 0
1063 1 5.787608319132152 12.673573197024888 4.088685555370487 0 0 0
1059 1 4.729476433953087 12.619853092520605 4.257144022935174 0 0 0
1066 1 7.106400607136367 11.995908400852102 3.143531965103161 0 0 0
1072 1 7.447625738969176 11.692784560118213 4.170970862616782 0 0 0
1067 1 6.916986971505027 12.723618571032715 4.129850791282942 0 0 0
1070 1 8.183687033137609 11.989195557904965 3.1636331950407124 0 0 0
1074 1 9.148517025582905 12.023287528424813 3.091878723013576 0 0 0
1076 1 8.508156359394352 11.66961988431119 4.049611246008837 0 0 0
1078 1 10.228705449176793 12.050402772766404 3.151744402408796 0 0 0
1080 1 9.656083411418546 11.627384695188676 4.0791463967419 0 0 0
1085 1 0.9225408994024165 12.84007163083787 3.339706368358505 0 0 0
1082 1 0.34524391740876204 13.787680471123519 3.2870728641139886 0 0 0
1086 1 1.4303193895759976 13.789606383671106 3.2252769521956157 0 0 0
1089 1 1.9974958181045537 12.865684724476992 3.2336969999199563 0 0 0
1090 1 2.479898590575329 13.953955306687226 3.2381715576800056 0 0 0
1093 1 2.953979867800807 13.022999049101774 3.120551317533621 0 0 0
1097 1 4.010829558439205 12.968340857388306 3.2670219426003393 0 0 0
1094 1 3.447172322755265 13.963554985850594 3.3413937996603975 0 0 0
1096 1 3.0382395215232756 13.642801305075015 4.187954076193491 0 0 0
1101 1 5.047286819495197 12.967491247967757 3.2661217203080493 0 0 0
1098 1 4.570772287415997 13.91300336281144 3.410472548567038 0 0 0
1102 1 5.82835553609814 13.858649241815039 3.329913476712467 0 0 0
1104 1 5.171968106776547 13.61381479445181 4.198083799141595 0 0 0
1109 1 7.51584084825584 13.062435518260157 3.4049695771128183 0 0 0
1105 1 6.463883619688947 12.9446122267384 3.1529043610913186 0 0 0
1106 1 6.942582919148953 14.003658333176878 3.1822536690608647 0 0 0
1108 1 6.387298077097981 13.663364916731762 4.117405128753461 0 0 0
1112 1 7.50575179517204 13.73962679015118 4.2002527776402685 0 0 0
1113 1 8.69220472998748 12.9677506274319 3.3382862570817937 0 0 0
1110 1 8.118009654715923 13.88776253535326 3.2087676070434212 0 0 0
1114 1 9.186901875979672 14.028721776028 3.3250298174758317 0 0 0
1081 1 10.767728386605992 12.953912556493117 3.227106627076569 -1 0 0
1117 1 9.738968376054146 13.035171938916164 3.3669351435102217 0 0 0
1118 1 10.155984088272966 14.036970575192457 3.207829429495293 0 0 0
1125 1 0.9289042041734303 14.817500796969133 3.360695423359503 0 0 0
1128 1 0.9229346214997256 15.49515598690203 4.172812216954491 0 0 0
1129 1 1.9672333629366219 14.922085799772391 3.3188998806446466 0 0 0
1091 1 2.5572038781500965 14.60700415931539 4.185428135804075 0 0 0
1130 1 2.4623859056801054 15.920535010882269 3.2980224458967395 0 0 0
1132 1 2.0922833792310254 15.538566518070205 4.17779375025685 0 0 0
1133 1 2.973285315876254 14.92563262306009 3.3200317431300506 0 0 0
1137 1 4.121249290271867 14.879026332043695 3.2623743369090836 0 0 0
1140 1 4.062377530029968 15.562958305471032 4.185043531982686 0 0 0
1136 1 3.06923785230589 15.54499146284395 4.129644151354572 0 0 0
1141 1 5.272185896719907 14.888676001950556 3.357226690267957 0 0 0
1144 1 5.341546663372545 15.478625750077763 4.205611238835558 0 0 0
1103 1 5.77738340794429 14.441568666545756 4.1274607456181345 0 0 0
1145 1 6.310811585079241 14.876136410753855 3.3098343273478483 0 0 0
1149 1 7.540075294459232 14.913539910882553 3.142598174052513 0 0 0
1152 1 7.548614980028966 15.565663719388395 4.107102508406525 0 0 0
1148 1 6.436172009307941 15.532804590730313 4.200531639577133 0 0 0
1107 1 6.92147968678202 14.555794342417455 4.0911339805319535 0 0 0
1153 1 8.68924114754046 14.928081179649901 3.2906355811520327 0 0 0
1156 1 8.534931241108065 15.51243892383309 4.174431227351239 0 0 0
1111 1 8.007196377078916 14.6493864145056 4.207720705758879 0 0 0
1121 1 -0.12698708404255604 14.925840391759959 3.313922336479122 0 0 0
1157 1 9.792544227778016 15.010109641567329 3.313829629286662 0 0 0
1122 1 0.37435304556024596 15.864759406023214 3.2237343275351886 0 0 0
1165 1 0.9197078680557422 16.849787813252725 3.2750133835977646 0 0 0
1127 1 1.4232694569189968 16.447582626219504 4.122938547856863 0 0 0
1126 1 1.4265423041983634 15.954062318448827 3.2879714441172965 0 0 0
1169 1 1.9727862592768215 16.82163665255319 3.293137875677907 0 0 0
1131 1 2.484158072390537 16.525298714891647 4.23398557702601 0 0 0
1134 1 3.691547394118505 15.86953547335305 3.254146454702416 0 0 0
1173 1 3.088130391402311 16.843855143429824 3.3101605837338917 0 0 0
1177 1 4.211471972060933 16.713912123537032 3.330679334463684 0 0 0
1135 1 3.638657646717217 16.5434447770433 4.164475788460196 0 0 0
1138 1 4.69615385544911 15.790938643744266 3.1613693286222238 0 0 0
1142 1 5.930264889304389 15.804360191193094 3.1309931845540167 0 0 0
1181 1 5.220844591076231 16.78510155939989 3.249344525269532 0 0 0
1143 1 5.829820133157166 16.416417226356806 4.005005219567196 0 0 0
1139 1 4.688375726691703 16.373152136337485 4.160888000396931 0 0 0
1146 1 6.979444514887028 15.740329526599051 3.207642808609294 0 0 0
1185 1 6.32218157772625 16.727527468143027 3.1059657662450704 0 0 0
1189 1 7.476688220658153 16.689057609869636 3.1382055942796825 0 0 0
1147 1 6.880106142638834 16.414321906393624 4.0878898850093925 0 0 0
1150 1 8.007685739470347 15.82052204418596 3.1769063664465165 0 0 0
1193 1 8.6390210364637 16.69448459739793 3.280797206852166 0 0 0
1154 1 9.2014268786821 15.850686687182957 3.2503788846375166 0 0 0
1161 1 -0.06554104450775994 16.778203443238752 3.1410292271940707 0 0 0
1158 1 10.308618422469355 15.953382782937194 3.215705912066395 0 0 0
1197 1 9.611971821218255 16.828327613876272 3.141399190095107 0 0 0
805 1 0.900549726718106 -0.3703578989489665 3.352050382436785 0 0 0
1162 1 0.387238348202517 17.79644240943513 3.360943160492455 0 0 0
1163 1 0.32761045920684007 18.49614062463448 4.103364352040804 0 0 0
1168 1 0.9767301707057525 17.449763262247316 4.232682391781492 0 0 0
809 1 1.9768975736949876 -0.3041259696000486 3.2635889910188487 0 0 0
1166 1 1.4667173544103702 17.75225930613392 3.3097593158666463 0 0 0
1170 1 2.538797174918331 17.80853974565702 3.2932984898910425 0 0 0
1171 1 2.6199269427878193 18.37909517649457 4.132719946313864 0 0 0
813 1 3.020959249695933 -0.354800404475489 3.25188108769892 0 0 0
817 1 4.129403253009389 18.482871163459638 3.1786539609093727 0 -1 0
1174 1 3.6174677820148133 17.652403766074766 3.337911537402261 0 0 0
1175 1 3.676588772685573 18.263079589104784 4.217098922229266 0 0 0
1176 1 3.1060878758058443 17.384771247173084 4.233122891393519 0 0 0
821 1 5.193769356161648 18.64321395695012 3.2229836294599723 0 -1 0
1178 1 4.681865224611188 17.647266937845593 3.250147447528639 0 0 0
1182 1 5.778258350860953 17.735774315854957 3.1347576244950752 0 0 0
1184 1 5.28258227714804 17.40786693947861 4.073305320573714 0 0 0
1183 1 5.807947297681213 18.42960229091417 4.063850415719562 0 0 0
1179 1 4.715553201783922 18.305842122673322 4.139836237742567 0 0 0
829 1 7.454381416009188 18.637570658358133 3.247041733506548 0 -1 0
825 1 6.37347942645364 -0.3639481548294723 3.2379256150240474 0 0 0
1186 1 6.95340133897333 17.583763611741066 3.1377443985677185 0 0 0
1187 1 6.799512149571091 18.33448028526333 4.2763516890330076 0 0 0
1188 1 6.270510962755408 17.41320361853613 4.1635010657064235 0 0 0
833 1 8.730477398992619 18.642950658231435 3.149034207674214 0 -1 0
1190 1 8.040174490099194 17.686271669947523 3.1192232946831 0 0 0
1194 1 9.114405495142595 17.677945770870952 3.2428085647974325 0 0 0
1198 1 10.207008486104847 17.716064341805904 3.189500558745665 0 0 0
1199 1 10.128367496163289 18.27458086064018 4.122011655198505 0 0 0
1202 1 0.13798392186888447 0.6227039814596462 5.023343873190889 0 0 0
1205 1 0.7866091920209557 18.642599854836657 5.029393611286148 0 -1 0
812 1 1.966838432708832 0.3080149122274035 4.087151249512081 0 0 0
1206 1 1.386564459464158 0.536873749408071 5.031351720578174 0 0 0
1210 1 2.52154569628312 0.5552727959616087 5.1012007546905425 0 0 0
820 1 4.250652524013586 0.16797763484779737 4.218674785766723 0 0 0
1214 1 3.5984647626527955 0.4944501731551988 5.107080403545483 0 0 0
1213 1 3.11653793529229 18.59527387250552 5.121857848309696 0 -1 0
1217 1 4.208545966780317 18.605136701157928 5.1579436649829065 0 -1 0
824 1 5.315210834660578 0.27477952506942527 4.210280873159173 0 0 0
1218 1 4.729411196629448 0.5563162276936334 5.03796661343685 0 0 0
1222 1 5.815378567281213 0.5951633906935359 5.123866198435181 0 0 0
823 1 5.881145883945072 1.1735368263350674 4.1867774115499605 0 0 0
828 1 6.476030361750313 0.3479904884944707 4.125607760938731 0 0 0
832 1 7.507350471254377 0.3189496468057005 4.2185995946121775 0 0 0
1226 1 6.860502894784395 0.5836414641842632 5.094155596602428 0 0 0
1229 1 7.435860402055327 18.664478182515733 4.984611382135447 0 -1 0
1230 1 8.07835334061101 0.6646712851948833 5.067254801187671 0 0 0
1233 1 8.503287176846666 -0.30586995428274144 4.959791487737953 0 0 0
1234 1 9.101380193651586 0.5334560884514389 5.065322437003053 0 0 0
1238 1 10.062411700974138 0.677486800134353 5.001647107507715 0 0 0
848 1 0.8019313139206186 2.2108261692449624 4.117862767080757 0 0 0
803 1 0.3784805338249081 1.2166879075696626 4.046761009031635 0 0 0
1245 1 0.9439470852645655 1.5010968866913241 5.107353031624541 0 0 0
1242 1 0.3788546951681969 2.4160779135464914 5.014754292668441 0 0 0
1241 1 10.751104315338104 1.5814821048822154 5.080375139978013 -1 0 0
852 1 1.9750048325249505 2.06006820387667 4.1603483775559 0 0 0
1249 1 2.049462918360968 1.5277764705831447 5.006693626707961 0 0 0
1250 1 2.459960395964208 2.427002044877703 5.035591213987876 0 0 0
1246 1 1.4793773703642095 2.498738008085311 4.924160667478665 0 0 0
856 1 3.020122363112313 2.0451466987104396 4.115330626445175 0 0 0
1253 1 3.130231294069411 1.4850685552630913 5.110268054461385 0 0 0
1257 1 4.182508551187382 1.4629282683015845 5.05770055572246 0 0 0
1254 1 3.5509786201981095 2.3982680954720785 5.1162024401924455 0 0 0
864 1 5.312692009909208 2.1502808185170887 4.0899979533938104 0 0 0
1261 1 5.262300028579257 1.5134475359227813 5.022971413544314 0 0 0
1258 1 4.766434425564972 2.3611487588602147 5.121537825885319 0 0 0
1262 1 5.853489958123734 2.495619403552367 4.992952782047616 0 0 0
1265 1 6.342783088779954 1.5470453649955245 5.043244315025962 0 0 0
1269 1 7.474562437578905 1.5049435706367031 5.1399348268201575 0 0 0
1266 1 6.962812766693518 2.4522156231246375 4.906104090531101 0 0 0
831 1 8.032263022113657 1.2210114982820914 4.139185480165521 0 0 0
1273 1 8.56379267667014 1.5552565095455424 5.0111199763179455 0 0 0
1270 1 8.0224902191969 2.549509558778281 5.028872045573267 0 0 0
835 1 9.143371823409442 1.3327585860974216 4.117012860140429 0 0 0
1274 1 9.012796247640498 2.4470798378623577 5.043435575192154 0 0 0
880 1 9.65568512667199 2.160973113425146 4.168620483654711 0 0 0
1277 1 9.643807359058638 1.5255159139033911 5.189658905167433 0 0 0
1278 1 10.173882514688842 2.4578639318479834 5.079498829364272 0 0 0
843 1 0.31877198513241833 3.1109465689983957 4.0204193813935944 0 0 0
1285 1 0.8261800779795629 3.355088915050697 5.050296528909083 0 0 0
851 1 2.5878453396889323 3.0297332931965855 4.123338704877162 0 0 0
1289 1 2.0028569545263113 3.3924454649226634 5.023102671631495 0 0 0
1293 1 3.0746372358751715 3.3471356451264844 5.05537004730859 0 0 0
1297 1 4.195722894314204 3.2330555341628333 4.952564394296731 0 0 0
1301 1 5.243278551213122 3.2556514636131872 4.89515032954664 0 0 0
1305 1 6.373098674831981 3.3819342084520376 5.096745708174831 0 0 0
1309 1 7.510472065827536 3.425272081892955 5.114741990103855 0 0 0
875 1 9.038145776926719 3.1316683307109168 4.165356631682484 0 0 0
1313 1 8.62621292062174 3.4612464198315798 5.04388893418835 0 0 0
920 1 9.670664511773971 4.065955020828547 4.12972195974782 0 0 0
1281 1 -0.115003122279458 3.390192122198604 4.943040543336847 0 0 0
879 1 10.226494852286201 3.106820260846381 4.118808109859722 0 0 0
1317 1 9.704902454149316 3.382326515751493 5.04023597535009 0 0 0
883 1 0.2615908415180702 5.021886038074075 4.1870003974871395 0 0 0
1282 1 0.38560890653274793 4.268800025017831 4.9146602482182935 0 0 0
1325 1 0.8120392744677833 5.367598961542445 5.027739652044146 0 0 0
1321 1 -0.20472140339428435 5.3839500885436085 5.072426186905883 0 0 0
887 1 1.3386793269632884 4.937137892939752 4.062884254760641 0 0 0
891 1 2.4309745650844654 5.065015177764011 4.078067981768673 0 0 0
1286 1 1.3653931841648752 4.299733916742584 4.971806617341408 0 0 0
1290 1 2.4979674832190732 4.328208866158777 5.143597453387194 0 0 0
1329 1 1.8801514401388157 5.298265361609166 4.9786505873080005 0 0 0
900 1 4.162191604656507 3.883896988291589 4.231758071489017 0 0 0
896 1 2.985627748718783 4.091967667137203 4.173945994016275 0 0 0
1294 1 3.5800561895962253 4.3938016391247405 4.961489716595174 0 0 0
1337 1 4.162063154293931 5.267851590587805 5.117321742457967 0 0 0
1333 1 2.9656083722096493 5.2094932731774195 4.9457370875559175 0 0 0
899 1 4.7663683976346904 5.045541353922152 4.161330873421791 0 0 0
903 1 5.786142971730252 5.069857045714528 3.9899265145500484 0 0 0
1298 1 4.709254486067681 4.203989712997446 5.038504748746272 0 0 0
1302 1 5.732985912604224 4.231643761491344 4.970285435862522 0 0 0
1341 1 5.271131050097548 5.228754316372406 5.005536624549512 0 0 0
908 1 6.383665773501101 4.131886499122732 4.138154241177655 0 0 0
907 1 6.921948571303699 5.0473491105063415 4.0382963003621954 0 0 0
1306 1 6.9186913996716095 4.429067524594132 5.003415575661706 0 0 0
1345 1 6.37479446997001 5.282612561987437 4.89842920433088 0 0 0
1349 1 7.492724574651304 5.25497842286681 5.013793739217618 0 0 0
1310 1 8.01681823064553 4.38396279188267 5.1436302733455825 0 0 0
1353 1 8.713171152183104 5.443906945059325 5.0435661829491405 0 0 0
1314 1 9.151600966351321 4.391134817246479 5.175534457040244 0 0 0
919 1 10.237422701014701 4.9978071701202085 4.172228339033725 0 0 0
884 1 10.728653549845593 4.055818102494144 4.08002851303313 -1 0 0
1318 1 10.265311240327499 4.410057917163409 5.04361368117572 0 0 0
1357 1 9.786614615389688 5.3641307555619155 5.006420453482146 0 0 0
928 1 0.8611827765001441 5.8725921340024385 4.15249541304402 0 0 0
1322 1 0.33543123016770393 6.386203019978157 5.139058952124978 0 0 0
932 1 1.8878098203517468 5.985465563447582 4.083475048300357 0 0 0
1326 1 1.362287501735288 6.3158389502121395 4.968112558806792 0 0 0
1330 1 2.625127442316759 6.351140105452303 4.998359440133087 0 0 0
935 1 3.659538493582934 6.9341257063337585 4.158777929534773 0 0 0
1334 1 3.6511522602278723 6.235603843267531 5.028722484905726 0 0 0
939 1 4.7152101482915905 6.938357731046815 4.01516935048163 0 0 0
944 1 5.190316198091657 6.048949124805614 4.186915642231938 0 0 0
1338 1 4.728201879082922 6.313270030160575 5.037781058006709 0 0 0
1342 1 5.89827132146582 6.271882886936579 5.084825098784686 0 0 0
947 1 6.904952362335109 6.935252611736078 4.1039186501412885 0 0 0
1346 1 6.940996437829203 6.292268553833995 4.999029400821084 0 0 0
956 1 8.5757312138714 6.0483796581369695 4.263109285246774 0 0 0
1350 1 8.06793355388755 6.270838487066738 5.078290565689184 0 0 0
1354 1 9.282262513812626 6.463580835448726 4.887324108593779 0 0 0
960 1 9.76017029065909 5.906372069140824 4.10976060588107 0 0 0
1358 1 10.223814046064547 6.338806001312654 5.091663091166144 0 0 0
1365 1 0.8425263312078659 7.263442073149442 4.909043285051922 0 0 0
1362 1 0.3486175203543238 8.144925251748553 5.070140934789246 0 0 0
1361 1 10.723855447332003 7.283222900778594 5.010360712378895 -1 0 0
972 1 1.969302760509072 7.8907129863273 4.119580961980528 0 0 0
927 1 1.432127929076612 6.948823832459767 4.06921890493206 0 0 0
931 1 2.4961397824550784 6.919985114020173 4.189309267848198 0 0 0
1366 1 1.504137947434837 8.134890193728895 4.968308127291063 0 0 0
1369 1 2.0028834654471925 7.13792809763678 5.027396909390309 0 0 0
1370 1 2.4418397717480866 8.148240886881682 5.043296587267462 0 0 0
976 1 3.127617843291652 7.816884023464972 4.150752173831809 0 0 0
1373 1 3.059903265512257 7.301773038924463 5.060729219147656 0 0 0
1374 1 3.5216126754912476 8.095306737805391 4.977173327361018 0 0 0
1377 1 4.164474216274461 7.1444533258930125 5.096439359560592 0 0 0
1381 1 5.196344220069089 7.257816770665352 5.1175241570751915 0 0 0
1378 1 4.725109614989131 8.221973056522195 5.017992768931369 0 0 0
1382 1 5.776375708369971 8.214998172943059 4.979850134129718 0 0 0
1385 1 6.339592689124432 7.283975256655171 4.95548010918828 0 0 0
1386 1 7.004259568992301 8.15548575551586 5.109033284351327 0 0 0
1389 1 7.445676191328559 7.208857932907419 5.0528867915856575 0 0 0
1390 1 8.160596029748277 8.132357011521213 5.00620859438435 0 0 0
1393 1 8.657015308129804 7.2866745174248 5.0015560903311345 0 0 0
1394 1 9.168777977469418 8.191996654497693 5.044847205533137 0 0 0
959 1 10.280318058124642 6.892327630116544 4.125446302976468 0 0 0
964 1 10.741938920487446 7.815180858703945 4.103954997824209 -1 0 0
1397 1 9.711958471416967 7.363534787138464 5.005999574701648 0 0 0
1398 1 10.24319330269173 8.251618629512 4.9583630033776 0 0 0
1008 1 0.8251576993918386 9.763609402615145 4.133046600356126 0 0 0
1405 1 0.7597253920822397 9.182317118149024 4.994070150206627 0 0 0
971 1 2.5196291119925953 8.766275937057328 4.104519725730402 0 0 0
1012 1 1.9059055354594037 9.865392592753338 4.260428426821698 0 0 0
1409 1 2.1135510495031564 9.100854139582093 5.0155977717046225 0 0 0
975 1 3.585519417472591 8.81515543739506 4.101543391705614 0 0 0
1016 1 2.9877965326982077 9.753593874508875 4.172439021824392 0 0 0
1413 1 3.070193727732665 9.020026891869113 4.974817201996279 0 0 0
1417 1 4.185790908969353 9.190913322934813 4.991703738838485 0 0 0
1020 1 4.021861668923335 9.779796391084684 4.087634499522892 0 0 0
979 1 4.808218425847246 8.74538907348913 4.107429459688626 0 0 0
1421 1 5.2651292829233665 9.11377114411772 5.0080470287249215 0 0 0
1028 1 6.3827034876654585 9.737592805325649 4.185432241384537 0 0 0
1425 1 6.352812544894796 9.048571591839638 4.977713631790314 0 0 0
1429 1 7.375440889373863 9.135198547290837 5.075403685098489 0 0 0
1433 1 8.624929785161434 9.161834639309077 5.1069305940266085 0 0 0
999 1 10.288105717032543 8.88712271619723 4.044101973443493 0 0 0
1401 1 10.752305420871782 9.125453384541409 4.992288812003932 -1 0 0
1437 1 9.659273723413271 9.189581828266908 5.0225889457182165 0 0 0
1003 1 0.2720702146633725 10.870984912990302 4.305013599905074 0 0 0
1402 1 0.409575414052468 10.15817656329191 5.126247443274207 0 0 0
1445 1 0.7441271981062506 11.114270910443693 5.050304520936239 0 0 0
1441 1 10.672738246770514 11.141767726261474 5.1095056563470145 -1 0 0
1406 1 1.3449342675792124 9.981107104715683 5.093723189667596 0 0 0
1410 1 2.448063499484403 10.065011660630633 5.004640336732574 0 0 0
1449 1 1.9779302351636554 10.997947920711818 5.10683386382168 0 0 0
1015 1 3.599909992660899 10.674156463768982 4.112300814804268 0 0 0
1453 1 3.0309240149227388 10.870082586764271 4.918635451845611 0 0 0
1414 1 3.6133457702261893 10.03154800591443 4.994978231957818 0 0 0
1457 1 4.205368473417617 11.023230406834163 5.020444353082091 0 0 0
1422 1 5.8526644916427575 10.116649571861585 5.052209597961617 0 0 0
1418 1 4.8481643809769235 10.100418408188101 4.994225173865679 0 0 0
1461 1 5.453382267765069 11.01855239663035 5.104718607855361 0 0 0
1426 1 6.9681350305825 10.061949979005835 4.895712356483271 0 0 0
1465 1 6.449927819888459 11.030128787137308 4.889050064829068 0 0 0
1469 1 7.513641379625938 11.067635561712947 5.006499510922183 0 0 0
1430 1 8.060226071084092 10.09749121069947 5.06776226923691 0 0 0
1473 1 8.6474207859014 11.087082949288122 5.03802287093995 0 0 0
1434 1 9.239105856017161 10.175340420625224 4.919919213362236 0 0 0
1039 1 10.288342074863877 10.660590304008029 4.127294623282405 0 0 0
1438 1 10.390912949709254 10.12700850248294 5.071237909466193 0 0 0
1477 1 9.642889364541613 11.043319393542918 4.982334290921841 0 0 0
1043 1 0.3839204444303822 12.613909320218678 4.106274368435149 0 0 0
1048 1 0.8763778804992148 11.688934540078801 4.155732975010759 0 0 0
1442 1 0.2923451926067061 12.058131811597352 5.053265942112139 0 0 0
1047 1 1.4549292235441122 12.643608923028758 4.235656001907195 0 0 0
1051 1 2.506421210208294 12.646873809463411 4.1576667732037045 0 0 0
1446 1 1.4175202502930728 11.913224958899475 4.9759480395327556 0 0 0
1450 1 2.5838339128003955 12.108567032396662 5.0127962665001435 0 0 0
1055 1 3.5639018017472073 12.610669735441647 4.274670955473941 0 0 0
1056 1 2.9910976419697892 11.732549914772978 4.16913151450244 0 0 0
1454 1 3.7231219475334116 11.866899436027786 5.014688926994621 0 0 0
1064 1 5.343329784455688 11.808463190139973 4.312071509120798 0 0 0
1458 1 4.796956345222394 11.888897463062385 5.152207042369622 0 0 0
1462 1 5.971093575078506 12.013177624907836 5.030740563330814 0 0 0
1068 1 6.356958832997533 11.723603287109384 4.043691419948835 0 0 0
1466 1 6.994174826117089 12.039126963994455 5.013694313618739 0 0 0
1075 1 9.20620309307272 12.567909716633132 4.116293763887072 0 0 0
1071 1 8.012030265795431 12.564878315344524 4.107486122394003 0 0 0
1470 1 8.087722021343271 11.957777974268756 5.051412942751776 0 0 0
1474 1 9.201361560857773 12.068082552712593 5.058153412323105 0 0 0
1079 1 10.298568594176867 12.667673488333438 4.08532484963929 0 0 0
1478 1 10.22719942059586 12.10715360068368 5.032914394230362 0 0 0
1088 1 0.6703796371602285 13.609267643602106 4.250225978609564 0 0 0
1485 1 0.8115169556465665 12.926329223028798 5.075849523951242 0 0 0
1482 1 0.16838818146403273 13.9207659233075 5.035883641226868 0 0 0
1481 1 10.683364643770208 13.050944620598914 4.994182707282842 -1 0 0
1092 1 1.90819411898402 13.644200539333443 4.230113492960633 0 0 0
1486 1 1.293113538491485 13.916601422776571 5.068720474105177 0 0 0
1489 1 1.8860996568401753 12.944375453083895 5.143332552270425 0 0 0
1490 1 2.4450481720331174 13.794901006611228 5.054522581297956 0 0 0
1100 1 4.150758297657011 13.515420990380232 4.212380637515421 0 0 0
1493 1 3.1107614757535287 12.990721726948598 5.037907400259462 0 0 0
1497 1 4.117063312643209 12.753534740564104 5.163821777688696 0 0 0
1494 1 3.673747549928273 13.798960212653965 4.990623244540311 0 0 0
1501 1 5.184052938572445 12.86230252958175 5.095287571818517 0 0 0
1498 1 4.711549846184474 14.010103068988546 5.0071178673122185 0 0 0
1502 1 5.711578772327499 13.9583712849885 5.148948068014872 0 0 0
1505 1 6.275979819409713 12.9626172963844 4.929920677315139 0 0 0
1509 1 7.598980106574782 12.976000115098667 4.992904366460733 0 0 0
1506 1 6.798778697218521 13.804750332378337 5.03705548499445 0 0 0
1116 1 8.465220884494567 13.433143365247593 4.243854577868882 0 0 0
1513 1 8.604310243396043 12.953200280973107 5.105620246239363 0 0 0
1510 1 8.107244731863926 13.870543854796091 5.07656704171594 0 0 0
1514 1 9.0705186561831 14.032298684731321 4.998648186095782 0 0 0
1120 1 9.629628144662224 13.635825684776124 4.163643034678728 0 0 0
1084 1 10.665364213431832 13.621733187256751 4.106307017878344 -1 0 0
1517 1 9.659913037588424 12.962033797096552 4.994798106515985 0 0 0
1518 1 10.055805194680868 13.99096861597852 5.013303046936902 0 0 0
1083 1 0.15784531496594267 14.488540890615564 4.1970909832899235 0 0 0
1124 1 -0.07175269295457759 15.611460669594257 4.242784296757104 0 0 0
1525 1 0.8850142509545407 14.960741588169268 5.141511771489077 0 0 0
1087 1 1.5072019900114966 14.687194734953584 4.206153399548707 0 0 0
1529 1 1.9819421190073263 14.859193695893357 5.124892306981691 0 0 0
1095 1 3.641880533561905 14.571578776065365 4.21272593673949 0 0 0
1533 1 3.0156827343463926 14.716111672639736 5.006694569460602 0 0 0
1537 1 4.126915801210555 14.874309321529752 5.02862834523662 0 0 0
1099 1 4.6355213883173505 14.689877693088205 4.229514019938829 0 0 0
1541 1 5.216763242356354 14.895092455530245 5.034444766149964 0 0 0
1545 1 6.2833958342425715 14.792496314637486 5.090055735196646 0 0 0
1549 1 7.415529519027862 14.66281632304058 5.048341697894409 0 0 0
1115 1 9.144416080959907 14.57580324897746 4.221591031009334 0 0 0
1553 1 8.531451948068025 14.916430048314359 4.959012082924511 0 0 0
1554 1 9.172573786365287 15.82917907760232 4.973162314154815 0 0 0
1119 1 10.164200575226555 14.639952869883341 4.169347722333798 0 0 0
1160 1 9.634633154174892 15.504972028246518 4.1584791464449715 0 0 0
1521 1 -0.1683273202692211 14.975699724707765 5.045535145815572 0 0 0
1557 1 9.836735086093512 14.93835123931826 5.071267575707105 0 0 0
1522 1 0.48524465125137417 15.874249800026647 5.117881318772745 0 0 0
1123 1 0.36514717026180865 16.542609705089017 4.1253320453049245 0 0 0
1565 1 0.9466978166586006 16.76046828495919 4.992184934353215 0 0 0
1526 1 1.4699562763664495 15.839582441925515 5.086780233580651 0 0 0
1530 1 2.49237441970188 15.851729843518878 5.086150133199987 0 0 0
1569 1 2.010921953124114 16.905359931522202 5.040100555085973 0 0 0
1534 1 3.6634647434927645 15.80756978223964 5.127505404450881 0 0 0
1573 1 3.079161586240982 16.646659471422012 5.125031080792301 0 0 0
1577 1 4.192312643325672 16.824098361629442 5.031546802353368 0 0 0
1538 1 4.782408366174766 15.844979967835503 5.0635058203007075 0 0 0
1542 1 5.911841859249629 15.720633970146284 5.022825587272763 0 0 0
1581 1 5.245958962218621 16.686560528498443 4.963291956652 0 0 0
1546 1 6.976766601926354 15.703319461469661 5.093725629067531 0 0 0
1585 1 6.277441279701301 16.761245882600303 5.041924305601989 0 0 0
1589 1 7.4517985239677005 16.726630899968516 5.036466401348837 0 0 0
1151 1 8.078156850994826 16.529344125138156 4.215277320565522 0 0 0
1550 1 7.999790412722567 15.815087544295835 5.049213865337576 0 0 0
1593 1 8.528003753398682 16.740185123732346 5.130096016268533 0 0 0
1155 1 9.154397063298926 16.578128356932453 4.150869466565882 0 0 0
1159 1 10.18507246165574 16.37561619747945 4.089387131731577 0 0 0
1561 1 -0.17765912257299424 16.721307513053965 5.016621778004359 0 0 0
1558 1 10.28188407822612 15.832142273940502 5.030914296907886 0 0 0
1597 1 9.723400314908368 16.774286450292006 4.9688693081910795 0 0 0
1201 1 10.686656078247644 18.57555097840668 5.087736095192812 -1 -1 0
1562 1 0.2222410199758882 17.67542574447499 5.0881018509572336 0 0 0
1164 1 10.750916623516932 17.447801787079595 4.095637722990023 -1 0 0
1172 1 2.0556767730366423 17.50164713835946 4.11256889302472 0 0 0
1209 1 1.9627557785488663 18.657671557993545 5.046404714246321 0 -1 0
1566 1 1.3924381203029623 17.69366854933891 5.043038703471701 0 0 0
1167 1 1.4423217638846464 18.465047863746165 4.201061069496952 0 0 0
1570 1 2.6038711887423784 17.791812672822502 5.050446291784505 0 0 0
1180 1 4.2471612726589525 17.35173651640895 4.151317271483979 0 0 0
1574 1 3.736375736700278 17.648616815352234 5.036285228954375 0 0 0
1221 1 5.273217325176425 -0.3575811157346059 5.049681933511703 0 0 0
1578 1 4.690076863004979 17.67971280382233 5.052338274030858 0 0 0
1582 1 5.800131967428341 17.69197826071248 5.0286356939191235 0 0 0
1225 1 6.256256732123359 18.66904711562376 5.036125390119231 0 -1 0
1586 1 6.956390684736057 17.616222793907518 5.003839300408366 0 0 0
1192 1 7.470813312729159 17.43402401384085 4.124147688883703 0 0 0
1191 1 8.131654482388157 18.492821266352436 4.097337897161962 0 0 0
1195 1 9.128117863918277 18.35967483269238 4.147222869699449 0 0 0
1196 1 8.440335385586053 17.566053106889566 4.150039309573129 0 0 0
1590 1 7.933606370218613 17.71371974013633 5.048995522385891 0 0 0
1594 1 9.088735157565218 17.620556546814605 5.1325450328537014 0 0 0
1200 1 9.639392769963248 17.473723723949522 4.042953658480366 0 0 0
1237 1 9.595791628393343 18.587118084640114 5.076991841088495 0 -1 0
1598 1 10.180404340402145 17.610413040597727 5.0982434839113004 0 0 0
1208 1 0.9020870243033818 0.15239311605859518 5.855952200621143 0 0 0
1602 1 0.13151540744231405 0.5725940610317062 6.718556952232288 0 0 0
1204 1 10.766373716217867 0.19803628870423928 5.885770213238324 -1 0 0
1606 1 1.3247518153937996 0.5714125421130699 6.856789091345907 0 0 0
1212 1 2.0432438984342647 0.21541359962026285 5.996314249668898 0 0 0
1610 1 2.4002119767883583 0.6401661598513204 6.906031976135866 0 0 0
1216 1 3.096685750554575 0.23674561334094224 6.004865146025151 0 0 0
1220 1 4.182278402302532 0.25543588800838657 5.881888447651083 0 0 0
1614 1 3.5292346206249543 0.6068528020637658 6.8859701182680455 0 0 0
1224 1 5.247662243432197 0.2870212361933969 5.842706617658638 0 0 0
1618 1 4.735806213571455 0.6243754604288942 6.754100524577541 0 0 0
1622 1 5.801924733122496 0.6213888274747781 6.771620636332438 0 0 0
1223 1 5.812392091888158 1.2920286108316625 5.897342266693188 0 0 0
1228 1 6.347535536057754 0.29319682213422615 5.869902812870996 0 0 0
1626 1 6.890098923948108 0.4853633836808723 6.781300802322142 0 0 0
1232 1 7.54626699155685 0.2546531139421323 5.877214564821044 0 0 0
1629 1 7.49770700957929 18.585198749861 6.828866558387867 0 -1 0
1236 1 8.64857399615471 0.11010406677590501 6.025645418466919 0 0 0
1630 1 7.9573471252773205 0.5643331211671192 6.818756639900772 0 0 0
1634 1 9.011949321909327 0.5978589267419753 6.830327261833846 0 0 0
1240 1 9.616989244338015 0.3249135562308908 5.868556169392087 0 0 0
1638 1 10.032033469525075 0.5987940148263827 6.773441563684645 0 0 0
1601 1 10.625992008182521 -0.3242906871634332 6.768273592380815 -1 0 0
1203 1 0.20248351007529264 1.207143785586909 5.878020333886211 0 0 0
1248 1 0.8344425727123279 2.129458337073573 6.003876359493602 0 0 0
1645 1 0.7876433126089635 1.3887273369454898 6.82463613046666 0 0 0
1642 1 0.33623136630978234 2.47528113261588 6.859654674153498 0 0 0
1641 1 -0.20626459943282444 1.5477447910918398 6.787178746981907 0 0 0
1244 1 10.742876047320657 2.2410147485194507 5.939724715373326 -1 0 0
1211 1 2.5708903569751858 1.1235181908249778 5.940435799437661 0 0 0
1207 1 1.4068768903368667 1.0708047008608454 6.014121991851421 0 0 0
1252 1 1.907066489404877 2.181607641785127 5.836451345910218 0 0 0
1649 1 2.0219402410233696 1.574816711317986 6.771764160650309 0 0 0
1650 1 2.5472417498728706 2.493236275862897 6.826809479274063 0 0 0
1646 1 1.4533499753921204 2.4245842817296324 6.8247018988126396 0 0 0
1653 1 3.0280781772211958 1.564569711940395 6.747312427200301 0 0 0
1215 1 3.7138294663910894 1.1943442470537204 5.973210417689264 0 0 0
1256 1 2.9701302661038933 2.1299578274684023 5.899273744745225 0 0 0
1260 1 4.119121383113677 2.0846710573898615 5.936856107107198 0 0 0
1657 1 4.124893857625688 1.498438808781993 6.965007981091911 0 0 0
1654 1 3.637141522352539 2.3391388047101036 6.821588593049066 0 0 0
1219 1 4.780522837692376 1.244971284574673 5.921461837287748 0 0 0
1264 1 5.49295450126778 2.2252912938372567 5.916935608317957 0 0 0
1661 1 5.277678214599394 1.4774376525045712 6.820889595429503 0 0 0
1658 1 4.687868012197912 2.422124090447139 6.763707975095354 0 0 0
1662 1 5.913895569378317 2.5539796326896216 6.815228667764441 0 0 0
1227 1 6.964001845739499 1.2624870060008955 6.024370804128532 0 0 0
1268 1 6.543455341782979 2.2594646423784694 5.767826422121146 0 0 0
1665 1 6.342373714043485 1.645587538244369 6.739836855390445 0 0 0
1272 1 7.509827077704712 2.2153771556489272 6.005560504657547 0 0 0
1669 1 7.397301454763651 1.4997566845721635 6.888495407013086 0 0 0
1666 1 7.004382685388669 2.4912258360168362 6.845064061915684 0 0 0
1235 1 9.051564753048979 1.157870788997625 6.0394490924330375 0 0 0
1231 1 7.9569107347573125 1.2420592097837995 5.951216393050734 0 0 0
1276 1 8.565791054583293 2.1318523501891655 6.038853166588416 0 0 0
1673 1 8.577708109913573 1.4946776793334724 6.8555312822541605 0 0 0
1670 1 7.995726834991413 2.525576159051896 6.92265086737422 0 0 0
1239 1 10.250295904838126 1.3038019116937454 5.912725565728058 0 0 0
1280 1 9.681305061736573 2.1472550878907453 5.964037183401891 0 0 0
1677 1 9.660194072375148 1.5609547913869917 6.83806155920513 0 0 0
1678 1 10.210092219938726 2.4220072331797633 6.868269187878488 0 0 0
1243 1 0.26278626586802295 3.049942720755285 5.993369008090615 0 0 0
1685 1 0.8431969549722147 3.3667492126678056 6.814418299114588 0 0 0
1247 1 1.4265826615717383 3.043861287541526 5.973987690513731 0 0 0
1681 1 10.70735961977239 3.4365698805439 6.968296298286157 -1 0 0
1251 1 2.5704841413859056 3.0976581633728673 5.882098585648383 0 0 0
1689 1 1.96304587845068 3.4012425596759646 6.794530311341171 0 0 0
1693 1 3.123245889544253 3.4394141044176187 6.735660689211617 0 0 0
1255 1 3.726153589600933 3.023516180185953 5.875539927006874 0 0 0
1697 1 4.150996416763026 3.4849507639166193 6.773577163876076 0 0 0
1300 1 4.131346640973957 4.049024103950439 5.817201049671365 0 0 0
1296 1 3.070545262140699 4.000941472447308 5.885528746144721 0 0 0
1259 1 4.829747918349859 3.1168317575522186 5.896100978625876 0 0 0
1263 1 5.7969813982576275 3.24949347174489 5.878581969755049 0 0 0
1701 1 5.2737021492166285 3.437267294023082 6.767771878915569 0 0 0
1267 1 6.9978440776065085 3.1641437242234067 5.939761553055627 0 0 0
1705 1 6.479572050289606 3.4838091307902284 6.811021180957511 0 0 0
1709 1 7.485896022368786 3.4057143349291357 6.905683812250886 0 0 0
1312 1 7.51054667407572 4.055805698844926 6.054488331351539 0 0 0
1271 1 8.014747063466046 3.1701450772064805 5.987855233081475 0 0 0
1713 1 8.570274043085249 3.352648012212889 6.906402531073143 0 0 0
1275 1 9.138061360248482 3.1146789511403963 5.953338793264338 0 0 0
1674 1 9.09451886815517 2.480339272498593 6.815459391274733 0 0 0
1279 1 10.221530482425784 3.1250340909776337 5.972386679790124 0 0 0
1717 1 9.640688258065094 3.357688637658497 6.869342276988629 0 0 0
1288 1 0.9265923518553802 3.9014594577775323 5.830717291008484 0 0 0
1283 1 0.3430020561534145 5.025940261001037 5.990457691369783 0 0 0
1682 1 0.29051025568466804 4.471620647395805 6.807598409912968 0 0 0
1725 1 0.9573158569849041 5.420483572187525 6.876969764948466 0 0 0
1686 1 1.3623704023805943 4.320280992890844 6.708658967454737 0 0 0
1721 1 10.710779707019771 5.464713897121876 6.809446401370971 -1 0 0
1292 1 2.045408789071209 3.970730451898313 5.855408215727839 0 0 0
1287 1 1.4072836678007494 4.973666256531018 5.9097422343543435 0 0 0
1291 1 2.47636191966717 5.047174771790116 5.84066038158818 0 0 0
1690 1 2.4525640688099353 4.310903538610639 6.780490520874232 0 0 0
1729 1 1.9943408735036807 5.233502331470005 6.8160255855424206 0 0 0
1295 1 3.5188585216056905 4.912106340246057 5.879588855382677 0 0 0
1694 1 3.615950822033659 4.3953332232888025 6.71070928377478 0 0 0
1737 1 4.098824963622635 5.3342630466914605 6.871244232740084 0 0 0
1733 1 2.991586014914881 5.383289063421594 6.740361174574713 0 0 0
1304 1 5.27178915134232 4.1731248790811435 5.9655339892059125 0 0 0
1299 1 4.5702967022285375 5.0181175169355265 5.960656677063654 0 0 0
1303 1 5.922815159007389 5.014721629525941 5.847101939723585 0 0 0
1698 1 4.729993657819737 4.376717665513042 6.826828094548335 0 0 0
1702 1 5.870530769131114 4.347768602486144 6.766268089942398 0 0 0
1741 1 5.323494886806419 5.3016231986051015 6.707261944677062 0 0 0
1308 1 6.470265794295314 4.0413321508268805 5.910419673386402 0 0 0
1307 1 6.92425065011831 5.035637526803561 5.9274362504696025 0 0 0
1706 1 6.911824657591831 4.452825196926553 6.749363816531925 0 0 0
1745 1 6.43733592513386 5.416848107976219 6.766700799943152 0 0 0
1749 1 7.45533445970719 5.41615628226983 6.777887740038798 0 0 0
1316 1 8.593744269134 3.9852022725221454 6.020266862385137 0 0 0
1311 1 8.134755273857007 5.004713882445095 5.989936812640041 0 0 0
1710 1 8.05011733915201 4.334685885186122 6.848949190440913 0 0 0
1753 1 8.58327540966593 5.480387687701286 6.860219111540416 0 0 0
1315 1 9.243434683708305 5.087548943895729 5.913928632471535 0 0 0
1714 1 9.132359840857735 4.35938802745242 6.926715333951499 0 0 0
1320 1 9.681748017328818 4.0134882800914795 5.935530866699382 0 0 0
1284 1 -0.14905755747048616 4.109901474393006 5.911541146304176 0 0 0
1319 1 10.277587944007745 5.053109370425579 5.951244946435595 0 0 0
1718 1 10.204214538449943 4.427270429163991 6.792935865349125 0 0 0
1757 1 9.71864444722635 5.323220427675327 6.9114645904475855 0 0 0
1328 1 0.9273246454626323 5.943731343068608 5.863914723278503 0 0 0
1722 1 0.3481085917578839 6.242430294760871 6.784022075838007 0 0 0
1324 1 10.769475309094869 5.972514074304246 5.8950179818726856 -1 0 0
1726 1 1.4268316538479597 6.287187752589683 6.729603449762398 0 0 0
1332 1 2.049536785392416 5.960155037492937 5.821564135014846 0 0 0
1730 1 2.4612907233954995 6.285172069375207 6.833448073124324 0 0 0
1327 1 1.5318398567442622 6.99711111503329 5.931680001817038 0 0 0
1331 1 2.523701461700581 6.926556693667879 6.0123178153534615 0 0 0
1336 1 3.0960978236884604 5.945521143563329 5.9286748975881585 0 0 0
1340 1 4.160053255885044 5.994890353856688 5.8913318880382235 0 0 0
1734 1 3.6187480199268522 6.326496267668548 6.702607757499192 0 0 0
1344 1 5.208791573599237 5.924388795897639 5.881555639407621 0 0 0
1738 1 4.689153191080161 6.270712939995943 6.773626124571741 0 0 0
1742 1 5.766050274295069 6.238518441481663 6.908115147032793 0 0 0
1343 1 5.904307885378801 6.887933445818497 6.022661418317249 0 0 0
1339 1 4.706611095866893 6.89024992020303 6.012367917132199 0 0 0
1348 1 6.3935558979780085 5.9865552696182345 5.898767434720699 0 0 0
1746 1 6.890437304839321 6.419020988275821 6.787628605463574 0 0 0
1352 1 7.434474761713088 6.007255965031563 5.901727261464106 0 0 0
1347 1 6.928821403801144 6.962315109097643 5.924120922054088 0 0 0
1356 1 8.569606850601417 5.967406054028179 5.9222955328364755 0 0 0
1750 1 7.993417357934425 6.351571470633876 6.964859123810817 0 0 0
1754 1 9.094357881329259 6.363804165887967 6.841708985675899 0 0 0
1351 1 8.008827875576074 6.9354047843047315 6.0036089556041485 0 0 0
1360 1 9.63789024142983 6.023239465726402 5.883196129987224 0 0 0
1758 1 10.248647210449231 6.379913257842399 6.793773455988176 0 0 0
1323 1 0.34149064133180107 6.953135241328002 5.988609923479634 0 0 0
1368 1 0.915549130937706 7.878030674565796 5.88155419107831 0 0 0
1765 1 0.9039168750055913 7.301791924057474 6.844244253800623 0 0 0
1762 1 0.17862638843546202 8.178171239649693 6.793271545133528 0 0 0
1364 1 10.702504375037158 7.837839087073643 5.842670956463101 -1 0 0
1766 1 1.35490663160809 8.223125510332416 6.816826158793914 0 0 0
1372 1 1.998200498425624 7.949820627574143 6.0916017117541585 0 0 0
1769 1 2.030421969122515 7.217458074993058 6.82406371827403 0 0 0
1770 1 2.515874585023817 8.20116716499564 6.921382587488813 0 0 0
1773 1 3.0003376587905115 7.23828498104198 6.846384409315338 0 0 0
1335 1 3.6054432795473677 6.9695148398333675 5.989605726474042 0 0 0
1376 1 3.2289420080541023 7.8791484163506205 5.999826980105231 0 0 0
1380 1 4.225207891216684 7.85249376052953 5.816721605157216 0 0 0
1774 1 3.560347916348742 8.192808737903489 6.856802673310233 0 0 0
1777 1 4.15357023734093 7.255957895088855 6.797822403492351 0 0 0
1384 1 5.292620075054602 7.985756266428616 5.883104684511997 0 0 0
1781 1 5.2385778062898 7.174213579109199 6.823732255141068 0 0 0
1782 1 5.744328435836042 8.217054209895588 6.793705985055812 0 0 0
1778 1 4.6256789197848995 8.26503198167572 6.888961560688024 0 0 0
1388 1 6.471465553296153 7.829937106162204 5.9182768329390125 0 0 0
1785 1 6.439913711305079 7.251130284412231 6.891181602218199 0 0 0
1786 1 6.8806883826760545 8.181561112432274 6.8771114447419555 0 0 0
1392 1 7.560648000372706 7.805484242220464 5.89388227965399 0 0 0
1789 1 7.492170529199744 7.409466858992395 6.8309112241145975 0 0 0
1355 1 9.170033368576117 6.9333476410677335 5.865970142806306 0 0 0
1396 1 8.464431137114943 7.916348084530107 5.992099487769366 0 0 0
1790 1 8.001677236127076 8.294307736508019 6.832586239202693 0 0 0
1793 1 8.479110754245028 7.18003680354768 6.853602972841516 0 0 0
1794 1 9.061974746190419 8.19572873418094 6.820895570624247 0 0 0
1761 1 -0.1999245097358178 7.204198174543096 6.903315506607178 0 0 0
1359 1 10.235858773897913 6.955239761254092 6.02296958104232 0 0 0
1400 1 9.581215091134748 7.810844500917112 5.9017611413979445 0 0 0
1797 1 9.62113277427607 7.183801966745639 6.860531122583392 0 0 0
1798 1 10.123310267171398 8.12325340895789 6.706536563287474 0 0 0
1363 1 0.34377066030797043 8.765312752178508 5.84095023172445 0 0 0
1805 1 0.8660157611675219 9.113121766172174 6.869384138133069 0 0 0
1408 1 0.8352558193991293 9.6401714082298 5.935514413881454 0 0 0
1801 1 10.601863788962245 9.178337795727685 6.921279277146272 -1 0 0
1367 1 1.4131540682643062 8.820711419451332 5.744734181377794 0 0 0
1371 1 2.5919415124289125 8.710787958309808 5.812245821055208 0 0 0
1809 1 2.020551736888051 9.099036421509286 6.846401806927388 0 0 0
1412 1 1.9773668167594196 9.81953034692607 5.848437428936936 0 0 0
1813 1 3.0112061806603454 9.173402242916405 6.744266979258203 0 0 0
1375 1 3.706828482648112 8.804577615229602 5.841801392549614 0 0 0
1817 1 4.017682838334291 9.16523601136103 6.831312775025226 0 0 0
1420 1 4.138595302702133 9.774566864551932 5.918994267499982 0 0 0
1416 1 3.1376383331572 9.730140324563472 5.798582531995418 0 0 0
1379 1 4.763803282930621 8.829560802513168 5.868315887639503 0 0 0
1383 1 5.806526049714813 8.767248524862106 5.950939550778955 0 0 0
1821 1 5.189733043788155 9.175091467685094 6.895224502285124 0 0 0
1424 1 5.342384866212987 9.869193193243028 6.0372237903557355 0 0 0
1387 1 6.912207111089339 8.81080256349379 5.995966343455927 0 0 0
1825 1 6.248717550903525 9.116973345248569 6.823814014517588 0 0 0
1829 1 7.534803764245197 9.235896221039186 6.752803175688066 0 0 0
1432 1 7.38266742453784 9.775384626289165 5.8292356855333 0 0 0
1428 1 6.312238806487363 9.739768829042374 5.921184661205774 0 0 0
1391 1 7.976461823678947 8.818933380439898 5.787198515983559 0 0 0
1833 1 8.54570080854911 9.081210162901254 6.80398794726711 0 0 0
1436 1 8.527080585056638 9.694492974865616 5.925711550468221 0 0 0
1395 1 9.20257265556149 8.84603290210647 5.920985148775161 0 0 0
1404 1 -0.17585650347245355 9.69162144688776 6.052741755870052 0 0 0
1399 1 10.250302039144287 8.86832236354025 5.944108220798524 0 0 0
1837 1 9.529724031433236 9.141388675904516 6.838348212069583 0 0 0
1440 1 9.761538452892573 9.811897093295226 5.8854692474581 0 0 0
1403 1 0.2692183529420861 10.623739075558927 5.972417852841986 0 0 0
1802 1 0.30142767314649443 10.006432033150757 6.821978043436533 0 0 0
1845 1 0.7972024709788321 10.974857036747144 6.784405680218103 0 0 0
1841 1 10.661181240259474 10.964304365533623 6.850989963960096 -1 0 0
1407 1 1.3117610552169665 10.691533300766261 5.896673285191896 0 0 0
1806 1 1.5203957418496672 10.06578898634011 6.727785621319327 0 0 0
1810 1 2.512039642056997 10.104234095226749 6.7001947416156264 0 0 0
1411 1 2.489070950198827 10.719188605883216 5.857578456201881 0 0 0
1849 1 1.9881391307993308 11.034413047992501 6.668294523174227 0 0 0
1853 1 3.1141939569462602 11.017949177869653 6.705136704650908 0 0 0
1814 1 3.529950262408109 10.06985544448988 6.790093879045056 0 0 0
1415 1 3.6091975209727396 10.726316849487658 5.753810545375083 0 0 0
1857 1 4.33425310965716 10.972031271393936 6.796292737284304 0 0 0
1419 1 4.727476367239726 10.743441528097767 5.857824485380718 0 0 0
1818 1 4.812708124067676 10.057192106203187 6.725966697882551 0 0 0
1822 1 5.911168117209775 10.080307954181118 6.800977038757797 0 0 0
1861 1 5.335549033668641 11.056712150013965 6.859143663688379 0 0 0
1423 1 6.040281360275725 10.708731787516573 5.952703282188404 0 0 0
1427 1 7.055006341165315 10.680349046842593 5.790110579859077 0 0 0
1826 1 6.894438746157353 10.181293588143772 6.718133571887939 0 0 0
1865 1 6.462699009572328 11.186330946245793 6.859509378163433 0 0 0
1869 1 7.351958008646806 11.144761767960333 6.770549533562122 0 0 0
1830 1 7.986975926929994 10.116199425684007 6.779794655907011 0 0 0
1431 1 8.02531742188344 10.763647053774887 5.896606993072068 0 0 0
1873 1 8.455891044701598 11.011291926817368 6.764685438193002 0 0 0
1834 1 9.022675098661292 10.091042063360032 6.700611906709795 0 0 0
1435 1 9.100371652181376 10.722800143430284 5.920790190362371 0 0 0
1838 1 10.028054142855652 10.119152516172631 6.788274216787503 0 0 0
1439 1 10.098461129498283 10.732938960799354 5.888308534142161 0 0 0
1877 1 9.570026520583138 11.011158818907695 6.874116960166926 0 0 0
1448 1 0.8538277837513943 11.682223127992927 5.915721154778266 0 0 0
1842 1 0.3520859929695621 12.03518405134163 6.821954940245032 0 0 0
1443 1 0.26840165624688844 12.652597484899209 5.8840847501841305 0 0 0
1846 1 1.3406402793031222 11.988761795694785 6.764230789121966 0 0 0
1452 1 2.0320353562521016 11.798962222636131 5.894618744084693 0 0 0
1850 1 2.5827835368161214 11.989776035341219 6.8490012152159245 0 0 0
1451 1 2.6566197556444733 12.62233513022463 5.95450021656706 0 0 0
1447 1 1.4049000149636888 12.684102898555091 6.001152799963871 0 0 0
1456 1 3.058647085311545 11.623714139588689 5.793845170415782 0 0 0
1460 1 4.211073826479343 11.555829036467149 5.9519966714595895 0 0 0
1854 1 3.6049668921562317 11.883281865365959 6.7661534893057595 0 0 0
1455 1 3.68622533814071 12.572313885682075 6.008508237555483 0 0 0
1459 1 4.764889249727209 12.524251236459188 6.0073820529115585 0 0 0
1464 1 5.33129804448777 11.55912937039924 6.035319724133508 0 0 0
1858 1 4.616905403942355 12.03753318378496 6.971443220474523 0 0 0
1862 1 5.857398998343464 11.974592035169454 6.87423143780892 0 0 0
1463 1 5.8922007166057115 12.498925970332595 5.886627952101012 0 0 0
1468 1 6.495531323174547 11.608521232154848 5.96946654300324 0 0 0
1866 1 6.875034258769558 12.11181405624095 6.847498812466134 0 0 0
1467 1 6.922137147706483 12.68352735896872 5.8305110983632025 0 0 0
1472 1 7.56907232594954 11.708859840566982 5.95334458842473 0 0 0
1476 1 8.616972912726428 11.688368557785289 5.94977931264281 0 0 0
1870 1 8.002429517815695 12.009939877090059 6.816497375211869 0 0 0
1471 1 8.023590009502652 12.698367712466846 6.034058829099681 0 0 0
1475 1 9.199084173102452 12.57489683102392 5.9674304709929835 0 0 0
1874 1 9.121058260759092 11.994684864030376 6.810351504581307 0 0 0
1444 1 10.767741286257188 11.669128284342756 6.003844444285015 -1 0 0
1479 1 10.259838541559542 12.613731945566851 5.844852273590997 0 0 0
1480 1 9.664321223694468 11.584729368982952 6.019111495774137 0 0 0
1878 1 10.22605131676723 11.914800930737302 6.878448709963918 0 0 0
1885 1 0.7882536832207903 12.963998722666382 6.8283471038168315 0 0 0
1488 1 0.7745020668518319 13.528943224335052 5.9164240397046814 0 0 0
1882 1 0.2944720006544902 13.82138772303477 6.715836070686411 0 0 0
1484 1 10.655017266195987 13.550733993400375 5.932649637720736 -1 0 0
1881 1 10.772361330155185 12.893944149279438 6.7908242062416715 -1 0 0
1886 1 1.4096063954963554 13.912153095575542 6.8848889426242454 0 0 0
1889 1 1.9676460195041665 12.906352410866402 6.883766737737008 0 0 0
1492 1 2.015726536868885 13.56592154912899 6.063495399385833 0 0 0
1890 1 2.6632491649746814 13.90176835475633 6.902179419483972 0 0 0
1893 1 3.034163283763567 12.966695493576168 6.904576056723318 0 0 0
1496 1 3.2306452752201347 13.491759031078399 6.022877991156019 0 0 0
1500 1 4.278766786468628 13.537152585782138 5.932680089631403 0 0 0
1894 1 3.717836231887795 13.851554755522601 6.835521392412802 0 0 0
1897 1 4.198510263552457 12.97756255093259 6.97304528917055 0 0 0
1901 1 5.206987311312362 12.867896784583222 6.833737429007947 0 0 0
1504 1 5.2714585570507095 13.497644067478541 5.936616463580704 0 0 0
1898 1 4.766792976111637 13.850463437247942 6.787172445645369 0 0 0
1902 1 5.842758793744357 13.951598105213277 6.672945448364088 0 0 0
1905 1 6.251820635359962 13.025736499751481 6.712425088012151 0 0 0
1508 1 6.379619599043379 13.632320242907207 5.893635212387118 0 0 0
1906 1 6.869931070235502 13.968546401370354 6.799336883180141 0 0 0
1909 1 7.296275528174253 13.06309001904992 6.764932227653241 0 0 0
1512 1 7.491570968001616 13.541045752647783 5.806653022618225 0 0 0
1913 1 8.47641824569314 12.911632878557052 6.8626406222697405 0 0 0
1516 1 8.629829640527774 13.5492082178994 5.967572189625438 0 0 0
1910 1 7.962362440401082 13.82182863921232 6.740551827164442 0 0 0
1914 1 9.113143840403453 13.809708995507046 6.86746997853498 0 0 0
1917 1 9.748712186964298 12.917103752948007 6.8088067797447795 0 0 0
1520 1 9.560050331312041 13.60291887595723 5.899845084150775 0 0 0
1918 1 10.243520769531091 13.852378019481367 6.852009405256172 0 0 0
1483 1 0.3701631386150195 14.61253976945801 5.9109361121844595 0 0 0
1528 1 0.8921500251573127 15.502851935558656 5.970341181292053 0 0 0
1925 1 0.8465300554997179 14.777284910843665 6.7861807545221255 0 0 0
1921 1 10.767090343161676 14.875970371072148 6.9344759415698505 -1 0 0
1487 1 1.4393280395095411 14.58096200273328 5.960676803309472 0 0 0
1491 1 2.679275008950226 14.434944535863256 5.890464191067956 0 0 0
1532 1 2.0012936107424215 15.594902590377014 5.938073396132166 0 0 0
1929 1 2.0540100063719575 14.901277213469076 6.806830580194074 0 0 0
1933 1 3.0782863385708716 14.832087496848633 6.740527103148203 0 0 0
1536 1 3.0563291484759283 15.515448181694355 5.972942152003163 0 0 0
1495 1 3.726090595955776 14.468164852231437 5.9517579840151935 0 0 0
1540 1 4.105785300302394 15.401950814658301 5.994172298112577 0 0 0
1937 1 4.214698391390853 14.753244704372548 6.832572807472415 0 0 0
1934 1 3.64197530149016 15.812834485332708 6.819770216754156 0 0 0
1499 1 4.794408267943925 14.539811681601407 6.002185925552772 0 0 0
1503 1 5.803403491769779 14.598122020219362 5.907726212211056 0 0 0
1544 1 5.257501848113868 15.489303280537154 5.844583587659775 0 0 0
1941 1 5.280392207244569 14.921201346270477 6.870536705990961 0 0 0
1942 1 5.868220092492484 15.83944209233167 6.856156471860761 0 0 0
1507 1 6.8980218038577386 14.505078990555202 5.84193890312071 0 0 0
1548 1 6.395125817738384 15.433790390078746 5.930590313101008 0 0 0
1945 1 6.27533751778487 14.856529294449855 6.903625608850956 0 0 0
1552 1 7.522557489055762 15.375990758533877 5.926996961908182 0 0 0
1949 1 7.436671712289691 14.84999482994499 6.931198053102507 0 0 0
1946 1 6.8881640991634905 15.717372718183526 6.886493239650867 0 0 0
1511 1 8.021221526346448 14.503075292805656 5.884590721911549 0 0 0
1556 1 8.576105170044492 15.414757065163228 5.841496437135795 0 0 0
1953 1 8.432610750382594 14.697906252468389 6.867453220496092 0 0 0
1515 1 9.082204541479268 14.522447087049319 6.057395074154242 0 0 0
1524 1 -0.1837065610584575 15.470557903727187 6.0114520807578895 0 0 0
1519 1 10.224545051197406 14.451874632993803 5.894747624304523 0 0 0
1560 1 9.684767146073735 15.47935405735488 5.89819879144817 0 0 0
1957 1 9.80827273314247 14.78206525517204 6.695159062295951 0 0 0
1922 1 0.3091843509730666 15.845490069533568 6.884754980903342 0 0 0
1523 1 0.26569626039929956 16.38366576352039 5.964887608407902 0 0 0
1965 1 0.8312489650344554 16.810883929030755 6.84359915966359 0 0 0
1961 1 10.76432771676343 16.741420536944606 6.828068596520617 -1 0 0
1926 1 1.4752540904651255 15.729222095476427 6.7634011258539 0 0 0
1527 1 1.3526464074750646 16.543272489114088 5.891027803344709 0 0 0
1930 1 2.6576451449595666 15.845073351626642 6.845939063544307 0 0 0
1531 1 2.4814276404516047 16.519588574332612 5.910379377132653 0 0 0
1969 1 1.9656844567380416 16.81028129725228 6.742175410455706 0 0 0
1973 1 3.0963019390251327 16.879870018101354 6.809313032327443 0 0 0
1535 1 3.6224583992756467 16.418927567650464 5.99092561746809 0 0 0
1977 1 4.1845441081349595 16.726716729530132 6.855376339673016 0 0 0
1938 1 4.8229751321592245 15.803418314109344 6.9284312296797745 0 0 0
1539 1 4.680299971518472 16.32403909431312 5.985181832919001 0 0 0
1981 1 5.2646332827340965 16.823628049665178 6.93147347225332 0 0 0
1543 1 5.784914056732327 16.501753776488776 6.021438794315377 0 0 0
1547 1 7.003175195756582 16.340673649340523 5.937687034770537 0 0 0
1985 1 6.3890873396981895 16.696969415650493 6.752177168463015 0 0 0
1989 1 7.416967576405774 16.740967607963878 6.830072137054422 0 0 0
1950 1 8.02416428386173 15.758117450451905 6.840873046108389 0 0 0
1551 1 8.115555756196056 16.360396913297933 5.9185038006318536 0 0 0
1993 1 8.472362360382817 16.660616926658545 6.868489074057594 0 0 0
1555 1 9.154358208260174 16.303790903389643 5.903219490655948 0 0 0
1954 1 9.150823028279156 15.606109459920994 6.840413791637029 0 0 0
1958 1 10.209693448397182 15.789560096535695 6.790050817690269 0 0 0
1559 1 10.200261498245702 16.460492039483825 5.8927511996776785 0 0 0
1997 1 9.563710020801057 16.68380014915953 6.865004294942641 0 0 0
1605 1 0.7858591309371292 18.625719302985303 6.903327762413606 0 -1 0
1563 1 0.272674054518142 18.433092187778648 5.92126890437591 0 0 0
1568 1 0.8924202872978668 17.54201462074678 5.974615843721883 0 0 0
1962 1 0.2580649113914918 17.640652146580447 6.911094789669493 0 0 0
1609 1 1.9356146567568548 -0.33648975438824147 6.846922907242899 0 0 0
1966 1 1.451238389528512 17.75456644280128 6.893646286374706 0 0 0
1567 1 1.5306516144067956 18.318011416705108 6.009954793493382 0 0 0
1571 1 2.627832780820792 18.41088538390991 6.0018966518609975 0 0 0
1572 1 2.0685089279198925 17.440087664079236 5.952233633371199 0 0 0
1970 1 2.4952044520303778 17.778632415457544 6.849910701537346 0 0 0
1617 1 4.208561124894293 18.65950429968259 7.024106233117709 0 -1 0
1613 1 3.0534830832259425 18.604139005066198 6.8920000100129535 0 -1 0
1576 1 3.0856047119105336 17.507367947035856 5.87566163900597 0 0 0
1575 1 3.7939769370360246 18.436731495113573 6.053858896003334 0 0 0
1580 1 4.205912390529433 17.29873743112982 5.960516161715163 0 0 0
1974 1 3.64866692439575 17.763943980091888 6.776686271303003 0 0 0
1621 1 5.289753755927674 -0.24053517250399578 6.763666398438705 0 0 0
1584 1 5.316112380766098 17.41656561504604 5.995335934748222 0 0 0
1579 1 4.748142654701196 18.269693146059772 6.064287138960216 0 0 0
1583 1 5.78979914694264 18.349742258038322 5.909906145254995 0 0 0
1978 1 4.6857681668788524 17.688747481596724 6.914065162444304 0 0 0
1982 1 5.836642126782805 17.634362884399188 6.810938239790959 0 0 0
1625 1 6.2927951875336 18.65789521271617 6.698542555131243 0 -1 0
1587 1 6.903445326251757 18.351974982035973 5.792664088064793 0 0 0
1588 1 6.479985227059973 17.312063494848317 5.913510801777315 0 0 0
1986 1 6.943399580028786 17.753354887752252 6.809730070930377 0 0 0
1592 1 7.517911351588778 17.334875430919617 5.9504416888631795 0 0 0
1633 1 8.535713482192165 18.647716325111116 6.867184785332107 0 -1 0
1596 1 8.504252980562551 17.326877557246178 5.909616260650197 0 0 0
1591 1 8.030203061899929 18.322112377481172 5.914805904718303 0 0 0
1990 1 7.952804323769498 17.59525839287839 6.844969554108266 0 0 0
1595 1 9.04999362280395 18.19921832013669 5.9530028238585215 0 0 0
1994 1 9.004163640772077 17.62671099799796 6.93587044904244 0 0 0
1564 1 -0.1362907329672946 17.399791925722788 5.929814821003919 0 0 0
1637 1 9.617889509859179 18.59117684761571 6.730771083989346 0 -1 0
1600 1 9.522518155609294 17.28259884281192 6.078756252725986 0 0 0
1599 1 10.27607069177424 18.327750248974578 5.989293310293347 0 0 0
1998 1 10.168452994492611 17.613131315551293 6.799720665963364 0 0 0
1608 1 0.8834022636168168 0.15706659364836117 7.672235269618671 0 0 0
2002 1 0.2773816564873029 0.6721767259662563 8.65479995571614 0 0 0
1612 1 1.868434476468806 0.11169824797081335 7.758099071209493 0 0 0
1611 1 2.498211291488375 1.1995313812487562 7.729702085815328 0 0 0
2010 1 2.431150615414496 0.5384786763084137 8.609653131918892 0 0 0
1616 1 3.0311070417353903 0.1759697401574828 7.706398285114872 0 0 0
1620 1 4.1164460148016415 0.27818510681288167 7.671062989657676 0 0 0
2014 1 3.574054818200204 0.4482851875053213 8.620080175520997 0 0 0
1624 1 5.223256009602863 0.3024414800973293 7.647991115356842 0 0 0
2022 1 5.806308178322578 0.576849039176049 8.4877449210078 0 0 0
2021 1 5.398139027562823 18.676636531219085 8.67156712182483 0 -1 0
1628 1 6.27360254407562 0.2365793845222639 7.597456277882859 0 0 0
1632 1 7.424506526139257 0.25326798319017574 7.707442729318723 0 0 0
2025 1 6.357690103230846 18.65912729767598 8.621124988232244 0 -1 0
1636 1 8.550609462387982 0.2030358394906422 7.644616312281288 0 0 0
2030 1 8.021297798792908 0.6251926568124224 8.74457637520721 0 0 0
2033 1 8.587127515155444 -0.3403464623435575 8.557934321318045 0 0 0
2034 1 9.096357368653493 0.5325571575041828 8.623966607968958 0 0 0
1604 1 10.673598574680767 0.1100077070531959 7.72305172581558 -1 0 0
1640 1 9.576893984416422 0.1617689401361232 7.663959686846626 0 0 0
2037 1 9.5617124764374 -0.35429646964644407 8.6049776663145 0 0 0
2001 1 10.651466129522522 -0.37057188413531694 8.701787456157764 -1 0 0
1603 1 0.2810856965484547 1.0038808263085353 7.7229719812965065 0 0 0
1648 1 0.7725526800011296 2.0219304736198196 7.760470079268755 0 0 0
2045 1 0.8609715596758232 1.5045638914375266 8.68692498506033 0 0 0
2042 1 0.1673368616059765 2.3847008252921986 8.659170617608876 0 0 0
2041 1 10.716546983348607 1.5275446218616724 8.670245004714033 -1 0 0
1607 1 1.3481652989190216 1.080165885104278 7.764422595840193 0 0 0
1652 1 1.8561595422125894 2.129503242472133 7.746414142593309 0 0 0
2049 1 1.9502910880463311 1.51036237326536 8.624398519590256 0 0 0
2050 1 2.53913842084733 2.4734854639133275 8.619911958467192 0 0 0
1656 1 2.968946861508134 2.2022516953130706 7.745254198458964 0 0 0
1615 1 3.529051528726889 1.2280685743849744 7.699481665475915 0 0 0
1660 1 4.307730438993005 2.125927111283715 7.738901817816787 0 0 0
2057 1 4.060598234455385 1.3384496354154707 8.681303252332475 0 0 0
2053 1 3.0078721262408976 1.582922625645845 8.67385237598572 0 0 0
2054 1 3.6491783602569523 2.2868301751101123 8.62132964984804 0 0 0
1623 1 5.7196666792576005 1.2443040517088022 7.687288787155369 0 0 0
1619 1 4.705122190884761 1.1696845241249831 7.805692485471271 0 0 0
1664 1 5.307865350113854 2.1069591012309994 7.6863699795546765 0 0 0
2061 1 5.336168018431379 1.561613012097952 8.697184090949763 0 0 0
2062 1 5.783992488726003 2.462860802884816 8.65163187829748 0 0 0
1627 1 6.819759853389601 1.311021755709345 7.697505818942041 0 0 0
1668 1 6.29427037950944 2.1787226292913915 7.783663239390757 0 0 0
1672 1 7.500633397875686 2.133076821055458 7.793510095414231 0 0 0
2069 1 7.36851092663158 1.496480980817517 8.741753363193055 0 0 0
2065 1 6.3456184007791725 1.5316235680956558 8.776916330989936 0 0 0
1631 1 7.9343414229325075 1.1148062226184121 7.718454426921211 0 0 0
1676 1 8.558696849462482 2.145472230926892 7.726966908900081 0 0 0
1635 1 9.108326970759762 1.1924269265675362 7.73718281024448 0 0 0
2074 1 9.06386833036996 2.4952131751298854 8.555511503889791 0 0 0
2070 1 7.964330110667807 2.4695624323376992 8.644670120974093 0 0 0
2073 1 8.541441016251106 1.490509667047086 8.602741309661411 0 0 0
1644 1 10.762587296030901 2.0321809145533494 7.7531134912763395 -1 0 0
1639 1 10.172600962719617 1.1020415060572455 7.627764604040155 0 0 0
1680 1 9.550259309343378 2.1372837250893566 7.741509835560848 0 0 0
1643 1 0.3113542160490187 2.9829676454680922 7.7048413803733276 0 0 0
1647 1 1.4546401834784175 3.06454489036977 7.727967555447675 0 0 0
1651 1 2.561175833108833 3.123226451416609 7.736566163954581 0 0 0
1692 1 2.0007586601456393 4.076097455853147 7.684601209199707 0 0 0
1655 1 3.62995024785748 3.1915094971732576 7.6360249093023365 0 0 0
2097 1 4.145120821039219 3.22803745459415 8.479996131018526 0 0 0
1659 1 4.767595170901191 3.1633049235730466 7.593347451543803 0 0 0
1663 1 5.795553925897307 3.1937889419117997 7.674455498579686 0 0 0
2101 1 5.1921690382137955 3.333568987724054 8.47928729872797 0 0 0
2066 1 6.796613277326743 2.420916760629911 8.650842761725253 0 0 0
1667 1 6.961778751678908 3.035883506357063 7.722680491429404 0 0 0
2109 1 7.515495485320822 3.4719722304215654 8.616422684988756 0 0 0
1671 1 8.073830914222135 3.0414825928388045 7.853401157057803 0 0 0
1675 1 9.102967279381758 3.0255648171991276 7.715572382506981 0 0 0
2113 1 8.627154016294774 3.6449679119307437 8.624075665412084 0 0 0
1679 1 10.14077260975169 2.9783726090352847 7.719398594579678 0 0 0
2117 1 9.70738867875416 3.46067517225489 8.621756701209712 0 0 0
1688 1 0.8940205656854487 4.079495916508421 7.5646424454861325 0 0 0
1683 1 0.3455408337134449 5.02626056708179 7.742494708079514 0 0 0
2082 1 0.397876416178398 4.396706893926726 8.575333720625176 0 0 0
1687 1 1.45221566942773 5.0531210664463515 7.781795084748328 0 0 0
1691 1 2.512148350519263 4.984325990519499 7.7834290142819 0 0 0
2129 1 1.9995456167615382 5.377264461588254 8.66767346087596 0 0 0
1700 1 4.089810039901646 4.09251694639656 7.629975429758837 0 0 0
1696 1 3.0760230892140816 4.116973955472256 7.694898014842824 0 0 0
1695 1 3.6412068785233984 5.066389247804472 7.7128870552832165 0 0 0
2133 1 3.1069530129449126 5.3450876707555794 8.655949800157169 0 0 0
2137 1 4.219226294805401 5.255080333534311 8.554350097462903 0 0 0
1704 1 5.345874665794955 4.092182598704181 7.7269777004965405 0 0 0
1699 1 4.739365342747047 4.976624651401712 7.711393178137794 0 0 0
1703 1 5.953536865117625 5.109434703772889 7.558203042856836 0 0 0
2098 1 4.72070666636139 4.292700315865146 8.586435458920462 0 0 0
2141 1 5.379062028473769 5.246991890507893 8.489760528055562 0 0 0
1712 1 7.539180701097769 4.102139651789664 7.699150388081774 0 0 0
1708 1 6.504278003869258 4.0905673955091935 7.710198177954377 0 0 0
1707 1 7.022122873265116 5.000025060623821 7.589087567569344 0 0 0
2149 1 7.578525399382814 5.437321523563585 8.560527282391822 0 0 0
2106 1 6.994700859476763 4.485152091305454 8.690173788238432 0 0 0
1716 1 8.602805317871386 4.058565625932137 7.7158421336177465 0 0 0
1711 1 8.123775851092478 5.09410179069894 7.611206303064734 0 0 0
1715 1 9.226350617275504 5.105284662269482 7.698072161164951 0 0 0
2153 1 8.7701421655904 5.337172162070448 8.6738131793713 0 0 0
2110 1 8.145738729384277 4.5351262550895886 8.483140953002179 0 0 0
2114 1 9.297224793960908 4.47279784099269 8.698685794308638 0 0 0
1720 1 9.725904814848757 4.04091983879364 7.76486215651904 0 0 0
1684 1 -0.1850219626568326 4.114357940969595 7.7661933837773915 0 0 0
1719 1 10.295944792214456 5.006502994920646 7.63143766952157 0 0 0
2157 1 9.843830167276323 5.416116484965931 8.486856554525078 0 0 0
2118 1 10.388593429519549 4.320533485199217 8.677790348876638 0 0 0
1728 1 0.9600813284455387 5.969045923152654 7.755882541531559 0 0 0
1723 1 0.519495814865544 6.974323493574815 7.643631942187955 0 0 0
2125 1 0.925337490452067 5.381320413271862 8.547731349214104 0 0 0
1732 1 2.058284544979447 6.0193437066170885 7.721210515774061 0 0 0
1736 1 3.111076983184365 5.920679387617985 7.681343274288688 0 0 0
1740 1 4.096907850159224 6.027983093718244 7.783388473979901 0 0 0
2134 1 3.5751984296067123 6.379225427038435 8.687418662444136 0 0 0
1744 1 5.233315952320079 6.067339745529179 7.742334580468851 0 0 0
1743 1 5.878690461662119 6.811393480867568 7.676940403793527 0 0 0
1739 1 4.65878843264815 6.969183168441995 7.729183762425205 0 0 0
2142 1 6.02576595719794 6.301207444125318 8.544335309343182 0 0 0
1748 1 6.442284206629501 6.01350470756685 7.696325494449976 0 0 0
1752 1 7.524608599943018 6.003180773990172 7.762716625228755 0 0 0
2146 1 6.990704600375648 6.3637265338246465 8.627567325166265 0 0 0
1756 1 8.607036376702098 5.972786165882996 7.763178232076836 0 0 0
1751 1 7.974547553710434 6.978473206213344 7.818189629951883 0 0 0
1755 1 9.046294287058537 6.892337144841288 7.793327904116895 0 0 0
1724 1 -0.09883659061813158 5.953988985444181 7.657982697445458 0 0 0
1760 1 9.765113041199896 6.130713780135544 7.721383198104672 0 0 0
1759 1 10.252475602368843 6.987136656222014 7.716643968019014 0 0 0
2154 1 9.207608379298811 6.29395916110765 8.668139186423828 0 0 0
1768 1 0.7449080027967728 7.987626467215044 7.618197346512412 0 0 0
1764 1 10.628472779112322 7.972681936280619 7.6578730057189315 -1 0 0
1727 1 1.5388695408211677 6.889984411461377 7.7204267433709575 0 0 0
1731 1 2.5824948377779267 6.932700434659862 7.702138159302788 0 0 0
1772 1 1.8907696831186027 7.899690699337285 7.658292804401105 0 0 0
1735 1 3.631192087738747 6.924194136742547 7.644937883572892 0 0 0
1776 1 3.112396303044613 7.862250019532613 7.833164295445606 0 0 0
1780 1 4.213127497403112 7.900554276388576 7.7220312056503335 0 0 0
2177 1 4.052617786409895 7.205527290975128 8.688851428368958 0 0 0
2173 1 3.079752239540548 7.246239424767284 8.592675853441628 0 0 0
1784 1 5.260517886747141 7.955282037271308 7.763495522914891 0 0 0
2182 1 5.721736262843886 8.225245969138767 8.709405724599288 0 0 0
1747 1 7.030264077194553 6.8708722006314105 7.708808244504258 0 0 0
1788 1 6.297917479103087 7.784928000760299 7.70347134915742 0 0 0
1792 1 7.446695989744936 7.8411037687071214 7.737877778745805 0 0 0
2186 1 6.764869246249924 8.279594006258524 8.659826300883868 0 0 0
1796 1 8.478784562060316 7.868517043479118 7.620192237538837 0 0 0
2193 1 8.496259091633647 7.386108209702361 8.747684727788137 0 0 0
1800 1 9.58161358489695 7.860164364947998 7.618584743973685 0 0 0
1763 1 0.1482612533874278 8.819487935641597 7.670005346951601 0 0 0
1808 1 0.7978772313255238 9.79971539683116 7.739051399065394 0 0 0
2201 1 10.615506308361425 9.152381564335869 8.590703666756248 -1 0 0
1767 1 1.4477792562344556 8.817438241513125 7.756077444730408 0 0 0
1771 1 2.4316859009443963 8.873156384110302 7.772037463831715 0 0 0
1812 1 1.9960516462391964 9.848166441637476 7.618498572182316 0 0 0
1775 1 3.616277918437524 8.813403021258415 7.684504221112769 0 0 0
1816 1 3.0240705942652943 9.775434179568855 7.679203379497844 0 0 0
1820 1 4.144818902951293 9.788865392608658 7.666010604932604 0 0 0
1779 1 4.785291866423855 8.81535206831053 7.758165198200317 0 0 0
1783 1 5.851576805037115 8.79651782355301 7.747518735492248 0 0 0
2221 1 5.329121415859471 9.258035233995843 8.645380692160023 0 0 0
1787 1 6.943523775587072 8.763881876747657 7.812473932113882 0 0 0
1828 1 6.412554434638418 9.73362473656603 7.65135929535063 0 0 0
1832 1 7.477294437123956 9.847411895059963 7.679446307764454 0 0 0
2229 1 7.406224100908335 9.132619937359884 8.660706175481131 0 0 0
2225 1 6.392712189029353 9.207708778483003 8.566103539882318 0 0 0
1791 1 8.075008009198385 8.773436085411614 7.818370232325794 0 0 0
1836 1 8.526966049131321 9.772125882804216 7.546981266635996 0 0 0
1795 1 9.072374332096441 8.771874910250311 7.678152308134015 0 0 0
1804 1 10.765591097225627 9.80288485820081 7.74469290171289 -1 0 0
1799 1 10.058413542083763 8.84002239377457 7.691220987054935 0 0 0
1840 1 9.584847173722089 9.757583919888425 7.67226984018183 0 0 0
2237 1 9.632298675550576 9.131657071236079 8.59272367733301 0 0 0
1803 1 0.26078458539087174 10.708040201301143 7.775934877500543 0 0 0
1807 1 1.3428139254660896 10.732327439418544 7.714892526958925 0 0 0
1811 1 2.6081698061432963 10.795421811893736 7.6100028242666955 0 0 0
1815 1 3.6109123274696913 10.710232903679875 7.627670907473363 0 0 0
2257 1 4.03910605961995 11.025572735782939 8.715275737857512 0 0 0
1824 1 5.258680593503286 9.793765283934194 7.711833905314856 0 0 0
1819 1 4.669047290042804 10.837532495508944 7.7718547884678415 0 0 0
1823 1 5.7466948019848525 10.70149206289579 7.690026232419907 0 0 0
1827 1 6.85565351468973 10.646217209628714 7.715861412348696 0 0 0
2226 1 7.018067560498643 10.125107739327394 8.6606785866959 0 0 0
1831 1 7.8839085934604105 10.83051289423206 7.736150147288452 0 0 0
2230 1 8.1192119163391 10.257524357084463 8.517666736461187 0 0 0
1835 1 8.886671422775965 10.667169970661844 7.702133483537295 0 0 0
2273 1 8.65999460797713 11.070151856861955 8.593305961824587 0 0 0
1839 1 10.15756205001005 10.795914195158481 7.729913055117379 0 0 0
1848 1 0.9054955319493223 11.635423251122196 7.789237624329614 0 0 0
1843 1 0.25275309340943847 12.495693216789476 7.727441690015722 0 0 0
1844 1 10.709223441450085 11.590735444045565 7.671141240253625 -1 0 0
1847 1 1.2902274813318924 12.614124160999754 7.706159997893586 0 0 0
1852 1 1.9268634906305668 11.666523220068372 7.645084450115812 0 0 0
1851 1 2.44461604074202 12.557789561150559 7.684834498636642 0 0 0
2250 1 2.391505248653311 12.108224688451463 8.69695632948454 0 0 0
1856 1 2.9583964089070767 11.686221895829725 8.051385089003293 0 0 0
1860 1 3.9886109584773406 11.71238738880152 7.704704631352456 0 0 0
1855 1 3.462871275199112 12.618496980959357 7.853818536627195 0 0 0
1863 1 5.817183617392486 12.70830032455679 7.748458419241528 0 0 0
1864 1 5.180401309056636 11.747472701833708 7.733711036282694 0 0 0
1859 1 4.649175644955586 12.665564400015626 7.846970725693309 0 0 0
2258 1 4.644404387437672 11.970780127581413 8.669824326808973 0 0 0
1868 1 6.3528446183149 11.70477718245534 7.7883137193895635 0 0 0
1872 1 7.415497191620789 11.741825624778873 7.633542756725886 0 0 0
1867 1 6.810681067556046 12.707803703556069 7.668538110493486 0 0 0
2266 1 7.051172216387135 12.065615869926608 8.596608079140767 0 0 0
1871 1 7.957619495708822 12.588481830526563 7.629763509882894 0 0 0
1876 1 8.598816008664354 11.627330741193838 7.620279817335474 0 0 0
2270 1 7.973005594833523 11.868212971109328 8.507290924080628 0 0 0
1875 1 9.014959668736005 12.622224023557546 7.7100469679261305 0 0 0
1880 1 9.678847165429755 11.668086015076495 7.6951505769678334 0 0 0
1879 1 10.296616556439876 12.57777489328222 7.715995011802301 0 0 0
1888 1 0.8906520747060458 13.544192228927587 7.707566450385968 0 0 0
1884 1 -0.13754678151231148 13.479806157221528 7.714329738809786 0 0 0
2282 1 0.30056817470976205 13.921413976669472 8.664618939568772 0 0 0
1892 1 1.916601372046582 13.551209850156255 7.670674031051693 0 0 0
2290 1 2.4308819065378655 13.844451134934946 8.70454924623819 0 0 0
2289 1 1.7991540719016177 12.920062308562608 8.51795586507457 0 0 0
1896 1 3.0584214237604574 13.565228078944843 7.781457017953359 0 0 0
1900 1 4.011838191311814 13.609442528402107 7.723020769947706 0 0 0
2294 1 3.576393596806682 13.966446937041708 8.619846108254654 0 0 0
1904 1 5.161543701802939 13.600954048688012 7.669083473085529 0 0 0
2305 1 6.444475444970351 12.906102923558642 8.747824104997594 0 0 0
1908 1 6.340896903636824 13.625567815513486 7.712871916723374 0 0 0
1912 1 7.46069811179323 13.638478783907717 7.628895986017682 0 0 0
2306 1 6.887293136215936 13.969728319896106 8.644663407492821 0 0 0
2309 1 7.507729519193776 13.012193714662537 8.462475100914443 0 0 0
1916 1 8.460942775474258 13.682575180413165 7.705809096537898 0 0 0
2313 1 8.562738003162256 13.054519679846155 8.599145020346432 0 0 0
2310 1 8.038508313890365 13.955883035974058 8.665844275849906 0 0 0
2314 1 9.18138189538719 13.967381061969707 8.64535846573897 0 0 0
1920 1 9.707426847170304 13.510173122342461 7.734384965126594 0 0 0
2317 1 9.652259459612225 12.955851053155083 8.64383581028961 0 0 0
1883 1 0.3595218931635977 14.514648744422493 7.707750559558598 0 0 0
1928 1 0.8644653495337482 15.39974225115508 7.634848553435981 0 0 0
2321 1 10.74555085262633 14.83246429103901 8.668783114488045 -1 0 0
1924 1 -0.2087592632308259 15.444989407846649 7.839590436455172 0 0 0
2325 1 0.7403611070124925 14.866782025190558 8.597937839758963 0 0 0
1887 1 1.3618974033240807 14.488931858998077 7.788507333293545 0 0 0
1891 1 2.5177303313977717 14.560725083139715 7.739782657300406 0 0 0
1932 1 2.0348556234482515 15.473022836618265 7.747530513310235 0 0 0
1936 1 3.1392344437587405 15.536975236006624 7.691524090794509 0 0 0
1895 1 3.5357196449979766 14.52538829984697 7.6737424139947485 0 0 0
1940 1 4.143146010302189 15.528528674626795 7.705560849778196 0 0 0
1899 1 4.71524294409941 14.624110948937073 7.701343010629245 0 0 0
1903 1 5.805499236425662 14.618594533140136 7.768497434497855 0 0 0
1944 1 5.372440193583477 15.507753063465119 7.7638995415696925 0 0 0
1907 1 6.870040577836071 14.562114439139393 7.686258145865022 0 0 0
1948 1 6.402442869149835 15.54505427709398 7.865281172461609 0 0 0
2349 1 7.459804458631605 14.850453681667489 8.659689364895007 0 0 0
2345 1 6.397572941939043 14.86223093814836 8.617717056438465 0 0 0
1952 1 7.450653505464656 15.517806394398246 7.775348787177201 0 0 0
1911 1 7.979495918190442 14.57444089018539 7.766361339129974 0 0 0
1956 1 8.638041870660867 15.365245334112323 7.678333048841946 0 0 0
2353 1 8.632899582389609 14.927794938315035 8.617499605435613 0 0 0
1915 1 9.098171989548657 14.465318080961788 7.721136441786575 0 0 0
1919 1 10.12911541621332 14.44186946703544 7.818080919336653 0 0 0
1960 1 9.791441114447107 15.528156045874907 7.646072216372735 0 0 0
2357 1 9.616628279376037 14.93906168458924 8.7171470430412 0 0 0
1923 1 0.2659878868115856 16.478356250165323 7.71044991924057 0 0 0
2322 1 0.39938252632769755 15.89096006012852 8.611414635069556 0 0 0
2361 1 10.674396740034993 16.812486919196598 8.59650077636357 -1 0 0
2365 1 0.859270163566354 16.768230317896496 8.52963539656381 0 0 0
1927 1 1.3718396928731187 16.290676845420876 7.545245471610267 0 0 0
1931 1 2.4400383039879525 16.447878820846753 7.66615871970518 0 0 0
2330 1 2.5371329432957954 15.8896657325968 8.515931154858391 0 0 0
2373 1 3.1197235464147934 16.71000477821795 8.697131982457462 0 0 0
1935 1 3.631079445458114 16.38522423174326 7.7756697772034435 0 0 0
2334 1 3.6340695553267603 15.749819622180656 8.732050417640774 0 0 0
1939 1 4.754599990308067 16.530946690808566 7.713806712862143 0 0 0
1943 1 5.827734398575226 16.513077395042668 7.780143725125916 0 0 0
2381 1 5.307408850717524 16.78952060233816 8.629471222803586 0 0 0
2338 1 4.720494140696251 15.751276190300953 8.630339818199577 0 0 0
1947 1 6.853830328213551 16.390224930512055 7.671061567195737 0 0 0
2385 1 6.418477822245861 16.73913694834618 8.551369051093673 0 0 0
2346 1 6.940609292803321 15.88217355205311 8.71927906819784 0 0 0
1951 1 7.888530407193799 16.51630132986933 7.7610744960687175 0 0 0
1955 1 9.036543470348754 16.41974613270011 7.788105589045944 0 0 0
2350 1 8.017005775363419 15.845743910178346 8.662255634210254 0 0 0
1959 1 10.214781101876603 16.421151174212824 7.765417183169369 0 0 0
2358 1 10.217799604878728 15.812688343104725 8.6820403222828 0 0 0
1968 1 0.8234272102678677 17.362682342041783 7.713623812986327 0 0 0
1963 1 0.3552160659361704 18.337290584817413 7.79514935882669 0 0 0
1967 1 1.4936609245261911 18.23163506286422 7.751992230856427 0 0 0
2366 1 1.3513851310523983 17.650727457095684 8.640581495407877 0 0 0
1971 1 2.6856611384492024 18.29042907038724 7.791119544830867 0 0 0
1972 1 1.9424022100371916 17.354170233689178 7.742491988270343 0 0 0
2370 1 2.5643908346040023 17.616697353753224 8.696819421527822 0 0 0
2013 1 3.047363714399351 18.591221222793102 8.615325312512045 0 -1 0
1976 1 3.0637232549067335 17.287971865650317 7.768705432838077 0 0 0
1975 1 3.6264053889936765 18.415097679965164 7.807891919925424 0 0 0
1980 1 4.25267655870506 17.384148894709 7.823881700639619 0 0 0
2374 1 3.606656243677305 17.520047869319225 8.587720352544022 0 0 0
1984 1 5.417575060030917 17.435762843047307 7.717177218668491 0 0 0
1979 1 4.799290571432001 18.451293881496472 7.801015029394842 0 0 0
1983 1 5.968312609352947 18.299211807483193 7.6420734453130414 0 0 0
2382 1 5.8892811662755005 17.6626340315977 8.614141824842818 0 0 0
2378 1 4.668533347060359 17.692556113484834 8.665510894920851 0 0 0
1987 1 7.022503025461665 18.375507513782896 7.688359269042159 0 0 0
1988 1 6.490970943243851 17.40744932202193 7.623781524547264 0 0 0
1992 1 7.566726307269796 17.47400327745179 7.849620127501709 0 0 0
1991 1 8.13824536848712 18.25641084389897 7.740188218773675 0 0 0
1996 1 8.55880006955016 17.24722680882664 7.779821458522031 0 0 0
1995 1 9.129639656868108 18.298341874074435 7.651807744536681 0 0 0
2394 1 9.147958700601237 17.76705456994386 8.55653962983929 0 0 0
1964 1 10.693724999447483 17.364336440212366 7.767993015097398 -1 0 0
1999 1 10.166836510905913 18.341845051540414 7.696982694508714 0 0 0
2000 1 9.695457683523255 17.334178426429865 7.66327847804653 0 0 0
2398 1 10.228671940202908 17.75398429611764 8.560374299996306 0 0 0
2005 1 0.8007160255095052 -0.325320180309073 8.616686041767075 0 0 0
2008 1 0.7628778408671173 0.27602257453688905 9.603779872255155 0 0 0
2006 1 1.3974313725213068 0.5828339567479962 8.645109672157865 0 0 0
2009 1 1.9847033836561474 18.567368117057292 8.626536259402679 0 -1 0
2012 1 1.786265023509571 0.2389234148695728 9.522323023353595 0 0 0
2016 1 2.998717224690018 0.21055016718486996 9.527298368728218 0 0 0
2020 1 4.183109963754357 0.4204689202369446 9.487920393831747 0 0 0
2017 1 4.194229556416828 18.66837686155213 8.67700772104718 0 -1 0
2018 1 4.736700703956685 0.4799737627193159 8.647366324249314 0 0 0
2024 1 5.251548696567154 0.35196333487279996 9.572512381168146 0 0 0
2026 1 6.888011931107909 0.590947206338366 8.659362846579858 0 0 0
2028 1 6.313436144567596 0.31531040173749103 9.496093892939195 0 0 0
2032 1 7.436328676854921 0.315104998809807 9.545548577730862 0 0 0
2029 1 7.436544922493837 -0.2587905479504554 8.724412037872293 0 0 0
2036 1 8.615188149738469 0.28791830156452336 9.502028327848837 0 0 0
2038 1 10.166770670737108 0.5764053741500998 8.551428677381272 0 0 0
2004 1 10.764618719585066 0.37163750849035926 9.656509436577698 -1 0 0
2040 1 9.759289044084166 0.1963189882069003 9.482571423655077 0 0 0
2003 1 0.2963899314362807 1.3641596154254976 9.512650687031071 0 0 0
2048 1 0.92423546094229 2.1714525972839436 9.627752485319608 0 0 0
2044 1 10.667896537271808 2.173317844401604 9.502163197355353 -1 0 0
2046 1 1.391805110581617 2.468710629236799 8.635321967379992 0 0 0
2007 1 1.3658158562238278 1.2092860635812739 9.58203457043266 0 0 0
2011 1 2.38237564738491 1.0997664544563301 9.523562782830224 0 0 0
2052 1 1.972249811886634 2.1822197277763697 9.491694076430084 0 0 0
2056 1 2.9982430502320945 2.075443279421665 9.625932794925834 0 0 0
2015 1 3.4701256156447995 1.1773035200570785 9.537110092339416 0 0 0
2060 1 4.223919310288031 2.1679978405199996 9.608836341064722 0 0 0
2019 1 4.796016184881585 1.2797620606606168 9.533997465074725 0 0 0
2058 1 4.677756960992117 2.312371897618615 8.6815066382588 0 0 0
2023 1 5.794763909401504 1.2670372510047732 9.64582124252099 0 0 0
2064 1 5.273925130977086 2.2923036219251687 9.753355376380545 0 0 0
2027 1 6.8800107470017835 1.2223013640703209 9.639921371449127 0 0 0
2068 1 6.244155570677533 2.3614364975360758 9.586404849201479 0 0 0
2072 1 7.461363906141331 2.2013254059618554 9.458527380172821 0 0 0
2035 1 8.96799165130884 1.2397818025751794 9.425795194370469 0 0 0
2031 1 7.870426355251202 1.1542539530087212 9.606128637393232 0 0 0
2076 1 8.566031534570733 2.1760581965715184 9.49547413687746 0 0 0
2077 1 9.632993621836821 1.557637611381285 8.59060888412357 0 0 0
2078 1 10.179197287063857 2.5061089316044245 8.616766000633882 0 0 0
2039 1 10.15463362179991 1.1916247044820434 9.500269263329143 0 0 0
2080 1 9.624879952852456 2.176880126627023 9.501647462985197 0 0 0
2085 1 0.9185879114364124 3.4265350332710582 8.552229281207811 0 0 0
2043 1 0.36369288477162676 3.0581065292607703 9.565709897940705 0 0 0
2088 1 1.000894892905244 3.988321349844604 9.507629953965221 0 0 0
2089 1 1.918022649520847 3.374964867979355 8.702439219724749 0 0 0
2047 1 1.4558655070246285 3.173026302589947 9.637182806722375 0 0 0
2051 1 2.6076924310177034 3.164176481393435 9.527554298137126 0 0 0
2093 1 3.1186429731750795 3.4631609072154923 8.500865358173368 0 0 0
2055 1 3.614600372301851 3.05389592971328 9.49890345025523 0 0 0
2100 1 4.159081529330033 3.9176922722560032 9.398378824195618 0 0 0
2059 1 4.716476013894606 3.1053477199552604 9.423874854644415 0 0 0
2063 1 5.860785570108978 3.3204662170666306 9.437700779149244 0 0 0
2104 1 5.295577841531129 4.142644602421008 9.579190151473803 0 0 0
2105 1 6.451151683923442 3.3988065378828316 8.577730498744803 0 0 0
2067 1 6.948127307552922 3.1710632360929667 9.425581737004501 0 0 0
2071 1 8.032168978907091 3.1391097802234302 9.463859780984984 0 0 0
2075 1 9.181562381723936 3.0917329090859673 9.41260060258105 0 0 0
2081 1 -0.13785550042045985 3.3274573413566952 8.538749365836903 0 0 0
2079 1 10.359272052943744 3.16888620258119 9.44407858797535 0 0 0
2083 1 0.47113488720083785 4.912469337408589 9.404163905361052 0 0 0
2084 1 -0.07466790950093588 4.031549227674191 9.559141646353872 0 0 0
2090 1 2.5353698805334153 4.339423181940622 8.588029171693975 0 0 0
2086 1 1.4606906159040969 4.287420276095399 8.491406433463993 0 0 0
2087 1 1.5176240093244717 4.833658171120322 9.31270598659199 0 0 0
2092 1 2.0077212508997846 4.00275887907205 9.464216189364631 0 0 0
2091 1 2.5871848021099364 4.948823947695798 9.441153860834516 0 0 0
2096 1 3.1455329670215493 4.075692699416413 9.344072043906467 0 0 0
2094 1 3.5745628809358454 4.337031774068125 8.592142825671694 0 0 0
2095 1 3.737332563518936 5.0680815197469995 9.415322145033086 0 0 0
2102 1 5.830443095352811 4.334890494210814 8.605174729451663 0 0 0
2099 1 4.764105253055227 4.949985076783746 9.454905012511771 0 0 0
2103 1 5.940920699711386 4.992820844048763 9.62111248369776 0 0 0
2145 1 6.5063933575503405 5.316106001467164 8.635600231417916 0 0 0
2108 1 6.467885425729661 4.102082117785742 9.506812612704287 0 0 0
2112 1 7.608157979086472 4.138548884851471 9.588835353773467 0 0 0
2107 1 6.968107183731224 4.998286659104341 9.600407449258352 0 0 0
2116 1 8.709204353205333 4.022442804934919 9.603991205778447 0 0 0
2111 1 8.009574242091201 5.009104917187164 9.431975082808508 0 0 0
2115 1 9.215316949851157 4.9853652744258135 9.57164796669753 0 0 0
2121 1 -0.1448994041612657 5.432534554862444 8.528195199819882 0 0 0
2120 1 9.802513982757453 4.032514466894885 9.500975891594251 0 0 0
2119 1 10.260601519765373 5.102756236786849 9.383107515896135 0 0 0
2122 1 0.36291670394692355 6.283237382244482 8.62846369712832 0 0 0
2128 1 0.9415469868065012 5.941801202451267 9.562494976265008 0 0 0
2124 1 -0.15383969474040843 6.038824513289315 9.481961978861637 0 0 0
2123 1 0.29390847600087533 6.972440774445684 9.458865483234543 0 0 0
2126 1 1.5550479441396083 6.273775238277812 8.71568292293522 0 0 0
2130 1 2.539655444846551 6.30092186955487 8.586076456558727 0 0 0
2132 1 2.1235406254346847 5.964259941757532 9.52169141166246 0 0 0
2131 1 2.464464815451822 6.936099866790317 9.618064103400942 0 0 0
2127 1 1.3420136495657768 6.990921812479828 9.568226355815328 0 0 0
2136 1 3.2278653086353994 5.9551749353220815 9.552921353016092 0 0 0
2140 1 4.216800425516525 6.0299897688136825 9.556679236022834 0 0 0
2135 1 3.6207070085498874 6.919604930100734 9.578713254837828 0 0 0
2138 1 4.675873651143522 6.227496745661772 8.611463693502428 0 0 0
2144 1 5.3050305956263575 5.849412066026377 9.369171732013863 0 0 0
2143 1 5.8169122565554305 6.804059624405011 9.538573073383834 0 0 0
2148 1 6.492229648260751 6.0392463975931845 9.522960478305146 0 0 0
2152 1 7.567217993790624 5.939330002442595 9.576613118681369 0 0 0
2147 1 6.893145274586368 6.943677771003958 9.575590738321116 0 0 0
2150 1 8.10521913104883 6.478717577647982 8.731542728530737 0 0 0
2156 1 8.642465312680013 5.886873940670705 9.445088616783993 0 0 0
2151 1 7.9251533099374685 6.9855098686987835 9.646945361630221 0 0 0
2155 1 9.040676846573668 6.982469401810685 9.52661946142176 0 0 0
2158 1 10.28917555595459 6.36620959971397 8.632685174193027 0 0 0
2160 1 9.82288662220833 6.14116604462975 9.440210097456427 0 0 0
2162 1 0.1909598067336325 8.195925284094304 8.482382711127869 0 0 0
2165 1 0.9178382228132718 7.212209133583028 8.570953477553475 0 0 0
2168 1 0.8016619669741252 7.9883977869226275 9.387729749218083 0 0 0
2164 1 10.760828074632801 7.9342060557803915 9.47895142672115 -1 0 0
2161 1 -0.14769067887898818 7.215979158201643 8.587188727190345 0 0 0
2170 1 2.41620841359343 8.22220545037805 8.587054306943568 0 0 0
2169 1 1.9676677942793974 7.217748038557182 8.60987583690933 0 0 0
2166 1 1.4314906208624008 8.187255449372833 8.620723298358184 0 0 0
2172 1 2.0719857251329596 7.92332854278108 9.510111980369778 0 0 0
2174 1 3.6272579507914378 8.250548414981568 8.605409232532176 0 0 0
2176 1 3.122808663233618 7.87592388907024 9.434079058488424 0 0 0
2180 1 4.13131525996696 7.85184563045296 9.521191761737528 0 0 0
2139 1 4.81994370631338 6.86392450625755 9.51979508755592 0 0 0
2178 1 4.675388993108774 8.180904843429708 8.686395013674277 0 0 0
2181 1 5.317819298463651 7.15590678838855 8.52603530219472 0 0 0
2184 1 5.2163854652743655 7.833982725598661 9.514463620428026 0 0 0
2189 1 7.404649631255647 7.328278247767632 8.733962849481896 0 0 0
2185 1 6.362171925820212 7.286318110537574 8.509086665560618 0 0 0
2188 1 6.246461513686882 7.836555687568497 9.60950544971342 0 0 0
2192 1 7.373809314212618 7.881885168083459 9.670390584956834 0 0 0
2190 1 7.909611523717817 8.21869974878587 8.639925725848148 0 0 0
2196 1 8.42809863095551 7.895741132597866 9.590402674680579 0 0 0
2194 1 8.972910536851291 8.225804299629532 8.58482039525812 0 0 0
2197 1 9.703017045856463 7.300791068430589 8.501408006884011 0 0 0
2159 1 10.219458468156184 7.083286603953541 9.640113204343184 0 0 0
2198 1 10.222844261121836 8.208413651820985 8.642257234060326 0 0 0
2200 1 9.607574779329823 7.96888550622468 9.35689588934218 0 0 0
2205 1 0.8158843376830034 9.105330401405643 8.544809854225132 0 0 0
2163 1 0.2774496542233609 8.868648269019198 9.408351804267257 0 0 0
2208 1 0.9023747876969543 9.723054460856126 9.447398960260996 0 0 0
2204 1 10.755140928815747 9.71732857193743 9.598573053591997 -1 0 0
2167 1 1.4265546104909252 8.837580740506873 9.441504433484205 0 0 0
2209 1 2.001599152418424 9.14699398275277 8.682248948823775 0 0 0
2171 1 2.575937050862862 8.89580105680402 9.52098281837421 0 0 0
2212 1 1.9804613798863917 9.778497461085637 9.545308611449355 0 0 0
2217 1 4.195416949851729 9.185157026331687 8.581157321819289 0 0 0
2213 1 3.069980521820007 9.193279440003767 8.52237682315843 0 0 0
2175 1 3.643416483012938 8.747629592781337 9.583195082889217 0 0 0
2216 1 3.124207930478393 9.716317305633186 9.444552638951007 0 0 0
2220 1 4.1734234969316875 9.77385847104391 9.529463483647733 0 0 0
2179 1 4.697658398037811 8.807754621371464 9.468747769655891 0 0 0
2183 1 5.793564082387857 8.833352926930074 9.590224870798203 0 0 0
2224 1 5.2303943515462885 9.74292793458291 9.46983329430301 0 0 0
2187 1 6.833721863647058 8.864124638779042 9.545299100936365 0 0 0
2228 1 6.415232694315394 9.890563137039297 9.50395781423549 0 0 0
2232 1 7.395977637810647 9.745688879405437 9.59513611886886 0 0 0
2233 1 8.413528327321313 9.150478313241884 8.66750582690488 0 0 0
2191 1 7.902897942049539 8.863140500294 9.635216559883023 0 0 0
2236 1 8.470732755947836 9.746978584524287 9.485709337138783 0 0 0
2195 1 8.939498287079719 8.802931428113872 9.550588948131317 0 0 0
2199 1 10.152590375546133 8.82238934730264 9.52636676626688 0 0 0
2240 1 9.659692366196428 9.804347118936908 9.555122186556694 0 0 0
2202 1 0.3095252826229328 10.024851990225383 8.693541881032504 0 0 0
2241 1 -0.18370379289899694 11.001155940120352 8.54245689593022 0 0 0
2245 1 0.8035460038012305 10.913477813977538 8.67628255622287 0 0 0
2203 1 0.2609665019660826 10.642936874514632 9.555072165264896 0 0 0
2206 1 1.4157234862271164 10.033504928288677 8.590019450191932 0 0 0
2249 1 2.1229308778428275 10.989234625958279 8.49020640529093 0 0 0
2210 1 2.479267898279533 10.053904981812007 8.651981477780854 0 0 0
2207 1 1.4506419425764439 10.725530425736478 9.390990472473487 0 0 0
2211 1 2.5359970791537427 10.546974469079785 9.576300778978343 0 0 0
2214 1 3.6239756657891364 10.044904766779926 8.517434790406675 0 0 0
2253 1 3.070234489276207 10.883385348079019 8.644570745590126 0 0 0
2215 1 3.5689479139536804 10.662390804638653 9.557522215687898 0 0 0
2222 1 5.929564356610352 10.1737362078453 8.526723866915306 0 0 0
2218 1 4.729330127497741 10.133122361200314 8.625256882686884 0 0 0
2261 1 5.22596783018926 11.025774787411684 8.554115576985069 0 0 0
2219 1 4.657910615534469 10.759594894202682 9.516238442635498 0 0 0
2223 1 5.654789440560041 10.690450878819192 9.564213658582936 0 0 0
2265 1 6.398048753404641 11.217318255947873 8.701101616519342 0 0 0
2269 1 7.464514988692025 11.0131610727976 8.64417373122393 0 0 0
2227 1 6.947761318141738 10.874843423891072 9.583972150622888 0 0 0
2231 1 7.926491571615297 10.679118728391702 9.44975865010906 0 0 0
2235 1 9.08058846187243 10.602713339586145 9.55921740546634 0 0 0
2238 1 10.230766231962924 10.05293424508645 8.595265839843657 0 0 0
2277 1 9.701703223742722 11.013638390323077 8.541653329978612 0 0 0
2234 1 9.038720657378338 10.007553868602974 8.726448259756797 0 0 0
2239 1 10.184329331517926 10.670876168443858 9.526525606755671 0 0 0
2242 1 0.39171021027750363 11.925879857037256 8.630222613609646 0 0 0
2248 1 0.9076967704500982 11.589759803190354 9.451877631094876 0 0 0
2243 1 0.3383650889246881 12.482119299630646 9.409587503440466 0 0 0
2246 1 1.4322173210849913 11.89049105591511 8.648447590936108 0 0 0
2247 1 1.3786057004969 12.62281678206016 9.467503306475953 0 0 0
2251 1 2.512308865360815 12.764961363900959 9.490845198198771 0 0 0
2252 1 1.9814988590092812 11.604233072822653 9.589496987441711 0 0 0
2254 1 3.6619854989885297 12.143433362309148 8.752738306739829 0 0 0
2256 1 2.9639658753678932 11.632732139908633 9.384396964976421 0 0 0
2255 1 3.5354043519855063 12.693598148457061 9.66338366387766 0 0 0
2260 1 4.078239215874422 11.683863951862133 9.520111938977319 0 0 0
2262 1 5.780105585968384 12.061394032674386 8.72226706186383 0 0 0
2263 1 5.845814482759758 12.672681257404632 9.531922774041437 0 0 0
2264 1 5.232647146156093 11.567664765505366 9.567488745090403 0 0 0
2259 1 4.802901942281836 12.690279263744996 9.539170069694338 0 0 0
2268 1 6.235022797010684 11.730603402019984 9.620040747452363 0 0 0
2267 1 7.000230489846695 12.614002710276418 9.5529632528973 0 0 0
2272 1 7.411165560432116 11.756693400814187 9.437370969223172 0 0 0
2274 1 9.079548227084672 12.031674407339173 8.551857374704412 0 0 0
2276 1 8.469348440427744 11.678765413639573 9.579204999844793 0 0 0
2271 1 8.071024783536881 12.622157795796165 9.564652806361275 0 0 0
2275 1 9.179719598551376 12.555557505569915 9.54968874012176 0 0 0
2278 1 10.264725958379213 11.946558781586862 8.675917074994835 0 0 0
2244 1 -0.21196828342209528 11.658316241358158 9.541246453686695 0 0 0
2280 1 9.631264123099783 11.565867120617959 9.626277190455864 0 0 0
2279 1 10.264012194686934 12.543809722606778 9.529723637254397 0 0 0
2285 1 0.8160054114206463 12.952101821559939 8.602281032070556 0 0 0
2288 1 0.8078383024496631 13.430815814882207 9.51178855997007 0 0 0
2281 1 10.774794209718259 12.941351068074184 8.62589083300696 -1 0 0
2286 1 1.269180441803006 14.009658841394332 8.664896940835638 0 0 0
2292 1 1.7999324730263488 13.620148268114983 9.713990029793168 0 0 0
2293 1 3.0664512249807103 12.997494410546029 8.673993385332986 0 0 0
2297 1 4.141324519058125 13.0389088606592 8.85892907845895 0 0 0
2296 1 2.874187343690345 13.723499375762275 9.544854882226312 0 0 0
2300 1 4.130871974826185 13.660706462464335 9.591191200596286 0 0 0
2298 1 4.644509429235943 13.869158493704829 8.709786596189055 0 0 0
2301 1 5.2291037070652715 12.906532276846008 8.650898144114118 0 0 0
2302 1 5.789283800422682 13.895163275809153 8.610017226368491 0 0 0
2304 1 5.287367123772131 13.570221496244637 9.522110350813842 0 0 0
2308 1 6.386233215736061 13.637610062577023 9.473206546625887 0 0 0
2312 1 7.467991458549071 13.570256987256524 9.487037620086925 0 0 0
2316 1 8.559268157369019 13.576912342669605 9.631514662588497 0 0 0
2318 1 10.219648462302754 13.854152043188734 8.636826663599392 0 0 0
2284 1 10.779610735092122 13.560016831590252 9.536924447492394 -1 0 0
2320 1 9.599355751290535 13.534460403688037 9.530157055002082 0 0 0
2283 1 0.2203380050850236 14.51506618706798 9.532777271529374 0 0 0
2328 1 0.7891563034994966 15.416930605836674 9.59721685624424 0 0 0
2324 1 10.606949921287612 15.547931347137581 9.604340315577831 -1 0 0
2329 1 1.9503322429959264 14.841344152885146 8.521664367713264 0 0 0
2287 1 1.2412434710478486 14.582067763408087 9.467867987993477 0 0 0
2291 1 2.459283163728669 14.611196957449812 9.474323850084177 0 0 0
2332 1 1.9048184461853057 15.3932459940586 9.3243069110886 0 0 0
2337 1 4.226569957992541 14.848710828031395 8.62327634328496 0 0 0
2333 1 2.9913599937163524 14.933407556371208 8.599355422282535 0 0 0
2336 1 3.021113266384686 15.540326116509863 9.573446544955145 0 0 0
2295 1 3.5932422106428867 14.606508974011868 9.551189863642131 0 0 0
2340 1 4.154796198012069 15.499435931826094 9.509416679646392 0 0 0
2341 1 5.37033016404611 14.752835034069962 8.631279698088596 0 0 0
2299 1 4.700723700575404 14.5349480060984 9.575023000223672 0 0 0
2303 1 5.844867837008364 14.574810874485001 9.619780968216006 0 0 0
2344 1 5.251667444348435 15.518337945736029 9.688624524482702 0 0 0
2307 1 6.889955818306068 14.556668018599012 9.54713912530539 0 0 0
2348 1 6.3341982741987275 15.54559857486424 9.479854627347855 0 0 0
2352 1 7.441445974306507 15.39813442351436 9.503315548113301 0 0 0
2311 1 7.968623130288736 14.520080535734134 9.563741221123777 0 0 0
2356 1 8.53671470435421 15.440325279290635 9.500408821179423 0 0 0
2315 1 9.160117673427521 14.423284413117495 9.550692037172976 0 0 0
2319 1 10.16837304553519 14.611422416496678 9.489533241811898 0 0 0
2360 1 9.53857274942547 15.414620463899679 9.615311104048557 0 0 0
2323 1 0.21066881285662337 16.48007191273289 9.506249690503532 0 0 0
2326 1 1.3867110226045882 15.769149741650082 8.481758161593202 0 0 0
2369 1 1.9566730680010114 16.74678772144027 8.567813535283335 0 0 0
2327 1 1.3110488173240564 16.365203870162954 9.400766597113282 0 0 0
2331 1 2.4140832755660173 16.36895675424313 9.453633729151786 0 0 0
2377 1 4.141183129246101 16.653734309929373 8.570699661223857 0 0 0
2335 1 3.6120354525195286 16.49581349277591 9.508484270474446 0 0 0
2342 1 5.823251692116821 15.806775406032816 8.71693284878378 0 0 0
2339 1 4.766107817714848 16.39182936433833 9.4854923762901 0 0 0
2343 1 5.969605614582813 16.596261088161622 9.456670884977205 0 0 0
2389 1 7.5188019502386485 16.825818405268418 8.725629806473798 0 0 0
2347 1 7.042241354795032 16.53756107916782 9.57230974371754 0 0 0
2354 1 9.230613151322334 15.886462005841278 8.715139318048527 0 0 0
2393 1 8.645896444328365 16.87663397623402 8.74795456922553 0 0 0
2351 1 8.030767835988982 16.368371198876666 9.572126968144149 0 0 0
2355 1 9.050437790350582 16.414643507849984 9.566419250726874 0 0 0
2397 1 9.671411581360854 16.817810114126335 8.618464668891537 0 0 0
2359 1 10.170702545184664 16.469133134095582 9.591631692932792 0 0 0
2362 1 0.3188709429303881 17.71464922758893 8.659363470214293 0 0 0
2363 1 0.29047803476818357 18.387848059268766 9.580152620199879 0 0 0
2368 1 0.9057740998702342 17.28825326865499 9.461290176378673 0 0 0
2367 1 1.373968943431197 18.23578482769155 9.517377453654712 0 0 0
2371 1 2.48870196881732 18.340341844023545 9.47362955203092 0 0 0
2372 1 2.001750820361894 17.35433914449087 9.530195462551452 0 0 0
2376 1 3.054587237902241 17.42997774515292 9.565011311992071 0 0 0
2380 1 4.1440249142075265 17.317235783618372 9.502804955800386 0 0 0
2375 1 3.6590118795531676 18.441657504229738 9.47632539744086 0 0 0
2379 1 4.790903072768336 18.379913913601833 9.497276001773283 0 0 0
2383 1 5.848299838931083 18.416319504311293 9.635139511098684 0 0 0
2384 1 5.373659456814748 17.44743229262677 9.420402779570097 0 0 0
2386 1 6.987656393817592 17.903898131484258 8.697905102371953 0 0 0
2387 1 6.909883333914979 18.48635197681388 9.582321245334548 0 0 0
2388 1 6.4618665051479445 17.45020900684984 9.508477210763482 0 0 0
2392 1 7.4843042757923754 17.4809748001855 9.584353859848665 0 0 0
2390 1 8.16029771572747 17.744423444929822 8.755000113752377 0 0 0
2391 1 8.015242987180951 18.419669029552505 9.510425112636282 0 0 0
2396 1 8.547152250450509 17.402572996783437 9.636819086751899 0 0 0
2395 1 9.096118046242147 18.38608501410462 9.536910950618743 0 0 0
2364 1 10.7536992268044 17.48364585261171 9.525064687996547 -1 0 0
2400 1 9.608088762725881 17.423173680102106 9.498489565524874 0 0 0
2399 1 10.20728565564643 18.32586388046384 9.477451387326862 0 0 0
2402 1 0.2599015428993923 0.5510273676540757 10.429443727272218 0 0 0
2408 1 0.8343327075760099 0.21607367799380206 11.309063908403495 0 0 0
2404 1 10.751676069253158 0.23796957583959666 11.327401203348524 -1 0 0
2406 1 1.416443764344029 0.6684904715714508 10.422052371062783 0 0 0
2410 1 2.533141839253295 0.6113748556131101 10.377051657114707 0 0 0
2412 1 1.900384780585354 0.27588023501056524 11.335432067713162 0 0 0
2416 1 2.9784095424526935 0.32364317709083057 11.31998469885746 0 0 0
2414 1 3.6434822373021083 0.6138225786541872 10.410945237284576 0 0 0
2420 1 4.178990784252503 0.24292094305834433 11.25904104746103 0 0 0
2418 1 4.619095252434547 0.7705906744840478 10.384116028498955 0 0 0
2422 1 5.749407797007451 0.6891816699366557 10.449537335022208 0 0 0
2424 1 5.2620595659730816 0.2792641872445796 11.26743512017629 0 0 0
2421 1 5.221746997851875 18.657943583545734 10.3635346493158 0 -1 0
2426 1 6.941838190392757 0.5618990170050194 10.533289162467463 0 0 0
2428 1 6.3172106778808885 0.35807508936953525 11.3626762260263 0 0 0
2432 1 7.484838285651367 0.20262077743731477 11.457471150132124 0 0 0
2430 1 7.962605363602608 0.5224346504958542 10.439955392971482 0 0 0
2436 1 8.499116256609131 0.246759813441503 11.405360135541299 0 0 0
2434 1 9.14629312974931 0.5974462061104764 10.457025164501339 0 0 0
2433 1 8.594014849445575 -0.33936521024817323 10.468852339864716 0 0 0
2438 1 10.171106804240026 0.6070647894535255 10.482270438588086 0 0 0
2440 1 9.745312751811774 0.20866454883668561 11.386190397710868 0 0 0
2403 1 0.24832430021487956 1.2835835579021972 11.364260261159686 0 0 0
2445 1 0.7897832482210019 1.4591386789746856 10.55179669469665 0 0 0
2448 1 0.8568948438184234 2.1010133692296917 11.483942094713798 0 0 0
2442 1 0.346695986427795 2.465108204781834 10.488803122259439 0 0 0
2441 1 10.7276839096211 1.4966939503542378 10.426560949339859 -1 0 0
2407 1 1.376259301526714 1.240237798888676 11.314704120948818 0 0 0
2444 1 10.692575244774819 2.1644955782974336 11.314485504238753 -1 0 0
2411 1 2.49327889781995 1.198228271767207 11.315630922932952 0 0 0
2449 1 1.997560744853728 1.5902566758444832 10.48840833401978 0 0 0
2452 1 1.9627833248746303 2.173468362905968 11.373227027093323 0 0 0
2453 1 3.0774447099015823 1.5487772526391106 10.481262115058296 0 0 0
2415 1 3.6410471046721753 1.1461505609902691 11.324754819840807 0 0 0
2456 1 3.1970505618567366 2.24558809780935 11.441041904384699 0 0 0
2457 1 4.098412822520934 1.63620833073759 10.522523262824029 0 0 0
2460 1 4.222133473293084 2.1624925105396087 11.474303628707561 0 0 0
2454 1 3.527045822874989 2.418910855945554 10.383036216337072 0 0 0
2423 1 5.817328684804172 1.2036247040551789 11.433543731390163 0 0 0
2419 1 4.735519964872037 1.1828801537054159 11.447674141881793 0 0 0
2461 1 5.294562005056061 1.6499238343499103 10.486092390085956 0 0 0
2464 1 5.2808213681083265 2.175288029431179 11.423580253601456 0 0 0
2427 1 6.975202972843506 1.1302204839913035 11.439996478368071 0 0 0
2465 1 6.5392690300804635 1.5358927772662603 10.512952606324014 0 0 0
2468 1 6.396088118844774 2.150906315345293 11.33811977255332 0 0 0
2472 1 7.547013353261715 2.2253922091741165 11.266105482357972 0 0 0
2466 1 6.988264855807955 2.4405247616849364 10.335486475372246 0 0 0
2469 1 7.544858554529771 1.486443953715182 10.621415539283257 0 0 0
2431 1 8.075748878096967 1.2204314757803778 11.47120342872977 0 0 0
2473 1 8.630266049000827 1.4734458013727814 10.403254966817654 0 0 0
2476 1 8.52177745265287 2.183535752705657 11.391270422023346 0 0 0
2435 1 9.089874601663258 1.203148885602961 11.33897987381516 0 0 0
2474 1 8.972067541838225 2.5564873868828033 10.333290451846509 0 0 0
2439 1 10.15315977881708 1.193521785707434 11.406437651151757 0 0 0
2477 1 9.684390073503092 1.5407531970144455 10.369607752198112 0 0 0
2480 1 9.667457873351552 2.0880818971200457 11.262415906492164 0 0 0
2478 1 10.166582815018838 2.495314280933368 10.376937911419619 0 0 0
2443 1 0.34746860063250096 3.0624429047721926 11.311126026640723 0 0 0
2485 1 0.8984704711006612 3.29504506217648 10.46014818379648 0 0 0
2447 1 1.3519637147809143 3.1002110218965435 11.327625396494394 0 0 0
2481 1 -0.16062340702938288 3.3894876109062997 10.375975221804955 0 0 0
2446 1 1.3320159717174767 2.325688549757985 10.543245238155981 0 0 0
2450 1 2.4333278015992548 2.475634016559908 10.413980811226944 0 0 0
2451 1 2.6314332855845555 3.0850854863089916 11.317011820977603 0 0 0
2489 1 1.909446901634697 3.5424500037739115 10.535474548839455 0 0 0
2493 1 2.9807736682333092 3.4083212690883142 10.481200882254333 0 0 0
2455 1 3.713328180479584 3.2730782950134927 11.427431752494053 0 0 0
2497 1 4.038211546748191 3.418154525325272 10.494027923098773 0 0 0
2458 1 4.686241670795216 2.5516435386881686 10.557652557750705 0 0 0
2462 1 5.878617778451498 2.5324974695882863 10.560012360861391 0 0 0
2459 1 4.810353101707387 3.2588968619927945 11.457153172821414 0 0 0
2463 1 5.9134015780870595 3.180597847573979 11.459246831550011 0 0 0
2501 1 5.321929128744116 3.442691872122298 10.401479440119555 0 0 0
2467 1 6.970784412541116 3.0633280085623933 11.317527273130057 0 0 0
2505 1 6.495060473380571 3.413912356088128 10.35598551157935 0 0 0
2509 1 7.55939167463802 3.383177250915723 10.388189326445723 0 0 0
2512 1 7.557106829780499 3.973870899539616 11.398239035937118 0 0 0
2470 1 8.037932418100226 2.4146370283529053 10.375635985720946 0 0 0
2471 1 8.05359461592833 3.1530115042606384 11.324094078321272 0 0 0
2513 1 8.719311304925803 3.5967964278254305 10.521012440500325 0 0 0
2475 1 9.176175045357898 3.0364978816257584 11.285612319822707 0 0 0
2479 1 10.252842912062324 3.0600172891790396 11.367791529326327 0 0 0
2517 1 9.762357327131532 3.380492766285676 10.390762854159492 0 0 0
2488 1 0.9667547378420591 4.062181305066739 11.297519510735173 0 0 0
2482 1 0.3823042637739501 4.388036288518862 10.446018557648157 0 0 0
2483 1 0.47284658140881786 4.988432473964174 11.425603671076376 0 0 0
2525 1 0.9070643748664995 5.360668672672482 10.502955721708275 0 0 0
2487 1 1.4743242099823073 4.966903024247731 11.355064039766983 0 0 0
2492 1 2.0597971501586945 3.8666951083791137 11.447051306551126 0 0 0
2486 1 1.414251155194102 4.462722825949057 10.45714487793738 0 0 0
2490 1 2.677154006422689 4.328493329479342 10.206121067697689 0 0 0
2491 1 2.6167144338293618 4.929094752185502 11.202906948545651 0 0 0
2529 1 1.965832274363664 5.371826601587688 10.306491787137022 0 0 0
2500 1 4.297246765044082 4.136256561887148 11.291193464558093 0 0 0
2496 1 3.0781496677428586 4.1239707854161844 11.176644991459163 0 0 0
2533 1 3.118922818497793 5.3428739946180945 10.322927507557578 0 0 0
2494 1 3.7364038980700593 4.338301299793805 10.23061840425818 0 0 0
2495 1 3.6523492446458428 4.963354531759764 11.203515322946489 0 0 0
2537 1 4.149162397883007 5.38818497882249 10.406421848103246 0 0 0
2504 1 5.440584569509653 4.115086273082966 11.40313928476478 0 0 0
2498 1 4.76886566257348 4.4811431435506295 10.436711362159908 0 0 0
2499 1 4.720329283134485 5.081262993358858 11.226637236836314 0 0 0
2502 1 5.810366309265703 4.375740542085389 10.425776495817455 0 0 0
2503 1 5.869686607434423 5.059704607840515 11.256711912122142 0 0 0
2541 1 5.340259482844407 5.3420001376260435 10.366913673033192 0 0 0
2508 1 6.483353223317839 4.036444776378031 11.324312766559116 0 0 0
2506 1 6.948542135157769 4.296337635448525 10.514764499098453 0 0 0
2507 1 7.052435670282578 4.959322365918477 11.296806983129391 0 0 0
2549 1 7.568814056099692 5.282988530332093 10.403566708535084 0 0 0
2545 1 6.465028553698579 5.2964196624541655 10.423125673480373 0 0 0
2516 1 8.634630502466656 3.9702336264549043 11.452925385081542 0 0 0
2510 1 8.047850085184631 4.289839362466655 10.543143227237195 0 0 0
2511 1 8.044977783984976 4.938898569168405 11.374621749905812 0 0 0
2553 1 8.649904167523612 5.303869378407137 10.339748837029136 0 0 0
2515 1 9.073558780185483 4.999734164867328 11.239805980205857 0 0 0
2514 1 9.252851500501574 4.4545276927771695 10.441993363832832 0 0 0
2484 1 10.692108489297564 4.047910757597898 11.269845091411634 -1 0 0
2521 1 -0.0975764925393016 5.327797840910897 10.320351962811573 0 0 0
2520 1 9.73766642186196 3.979810270737709 11.285523023337715 0 0 0
2518 1 10.298027553649362 4.501932771750821 10.354787205413276 0 0 0
2519 1 10.172740518767782 4.93289697412912 11.26217373104362 0 0 0
2557 1 9.69611272981037 5.352073170587649 10.374226494389614 0 0 0
2522 1 0.46330386906198573 6.296977082623724 10.30362565882148 0 0 0
2528 1 0.9516012439726262 5.892943586159622 11.304448973363257 0 0 0
2523 1 0.19000946257659834 6.952331707905931 11.251200548221409 0 0 0
2526 1 1.4677940237258003 6.367936531374883 10.432223629709403 0 0 0
2530 1 2.5534409647097855 6.252147342859409 10.362879531463276 0 0 0
2532 1 2.0674914184858295 5.888064960886881 11.161807970712013 0 0 0
2536 1 3.1479649135674705 5.984874761321328 11.246062596178117 0 0 0
2534 1 3.7366125702204975 6.2865993314735995 10.377363701830113 0 0 0
2540 1 4.229382878519281 5.9051507736966 11.23096072219641 0 0 0
2535 1 3.57284541071199 6.906402298328072 11.290422502806438 0 0 0
2538 1 4.868258837486462 6.241373779011176 10.31513598606903 0 0 0
2542 1 5.949021051601447 6.277453001985419 10.516250768368792 0 0 0
2544 1 5.294130222090358 5.945149348653974 11.265821963544289 0 0 0
2539 1 4.711269190057857 6.8177461378058135 11.310944842976587 0 0 0
2546 1 7.021279686287045 6.3030304185713995 10.426491123773248 0 0 0
2548 1 6.385230404630034 5.969044780259506 11.30055223751723 0 0 0
2552 1 7.435779037320479 5.879572150306535 11.307339111361427 0 0 0
2547 1 6.97264397852206 6.825895151578211 11.313077972463429 0 0 0
2550 1 8.143979701187998 6.26468681448569 10.307504708098628 0 0 0
2556 1 8.477655214859507 5.975349456622895 11.211311669491272 0 0 0
2554 1 9.120288276539409 6.259974403148754 10.374245074529881 0 0 0
2551 1 8.05184033939176 6.93358664671006 11.235110940408473 0 0 0
2524 1 -0.06596953747248452 5.766507030451769 11.159319146207316 0 0 0
2558 1 10.420190557892777 6.289611965170195 10.349336407530293 0 0 0
2560 1 9.725580001676153 6.009453221526151 11.160444300020163 0 0 0
2565 1 0.857723769485353 7.271619491683748 10.404918994531931 0 0 0
2568 1 0.8312300165514741 7.9541816691721845 11.304410291601185 0 0 0
2562 1 0.30657843321459444 8.220900590159106 10.437070185252903 0 0 0
2561 1 10.690281728727637 7.374870055481942 10.456677341452444 -1 0 0
2531 1 2.560530927850252 6.784648348675625 11.255587279033877 0 0 0
2527 1 1.3602738005017918 6.979553849552368 11.322338489781902 0 0 0
2566 1 1.3648309078181595 8.112789917712995 10.29001752150437 0 0 0
2569 1 1.9611532979491058 7.201403526074977 10.409252784354818 0 0 0
2570 1 2.493386584782093 8.106304143572663 10.414868391061198 0 0 0
2572 1 1.9226322945849441 7.80132220406262 11.337476117660787 0 0 0
2576 1 3.067687874773754 7.838722654116587 11.31468345641269 0 0 0
2573 1 3.0859476695213726 7.121107119562915 10.384505202696491 0 0 0
2574 1 3.60932489245341 8.120403041056168 10.47596543052375 0 0 0
2577 1 4.182312316469835 7.213677888644853 10.397752219526545 0 0 0
2580 1 4.268004033885424 7.750467657858181 11.334211545362965 0 0 0
2543 1 5.743342099128817 6.807135294181193 11.309581190788949 0 0 0
2578 1 4.744321639432433 8.071067211826152 10.460692489653226 0 0 0
2581 1 5.262874171684129 7.2685058309507085 10.395735700507249 0 0 0
2582 1 5.74663392673935 8.17384199315912 10.476603532317183 0 0 0
2584 1 5.297990246506548 7.801724135801168 11.261914330417351 0 0 0
2585 1 6.4275987694881875 7.244386208563901 10.483129362606425 0 0 0
2586 1 6.832405183782435 8.18650839228603 10.47284661388891 0 0 0
2588 1 6.334779013897693 7.760310142603004 11.428057718531853 0 0 0
2592 1 7.4808120341491255 7.92877386450386 11.409830706771688 0 0 0
2589 1 7.530515996668539 7.225460519168012 10.527288796906948 0 0 0
2555 1 9.065416637118215 6.813720535614811 11.209274722043084 0 0 0
2590 1 7.956827545526369 8.244617907182135 10.490568157085109 0 0 0
2593 1 8.52323128022947 7.412531115629896 10.519757227619198 0 0 0
2596 1 8.540637353456685 7.885431109031519 11.374229787705772 0 0 0
2594 1 8.960340727722063 8.27422173665371 10.485372934756217 0 0 0
2564 1 -0.21794158840603473 7.8977442773124 11.296673513516923 0 0 0
2559 1 10.115100277700723 7.004320014144031 11.237587772145138 0 0 0
2597 1 9.518277069415472 7.386321780850656 10.373367564922024 0 0 0
2598 1 10.144114336318587 8.248929899245493 10.363850507246456 0 0 0
2600 1 9.546834360372895 7.935690272607925 11.221968505343973 0 0 0
2563 1 0.246275749701246 8.884855440796127 11.317835334284782 0 0 0
2605 1 0.808026096269908 9.10852137665646 10.311647837581935 0 0 0
2608 1 0.9868857694076765 9.772327000829042 11.268980404919331 0 0 0
2601 1 10.764161191670105 9.155871593452803 10.382767548244605 -1 0 0
2567 1 1.4149163964212843 8.826712084962368 11.228331939664805 0 0 0
2571 1 2.4154291397154024 8.808147279483569 11.285390413326494 0 0 0
2609 1 1.9962314562659413 9.135583804306602 10.350283777863966 0 0 0
2612 1 2.011127988302282 9.836177037906527 11.27929787904039 0 0 0
2613 1 3.0103826299912777 9.006546270089409 10.403265696537376 0 0 0
2575 1 3.5809605761448937 8.737614314931639 11.414908291463702 0 0 0
2617 1 4.189544993047558 9.03244735963106 10.329330292317973 0 0 0
2616 1 3.102589877411143 9.701279068773152 11.274637932363264 0 0 0
2579 1 4.651394896437375 8.764593890846598 11.245652911235146 0 0 0
2583 1 5.725411939057959 8.780428520872707 11.275835671098829 0 0 0
2621 1 5.261291368461039 9.060250144098836 10.39051020166519 0 0 0
2624 1 5.323363202846442 9.770706857605765 11.303336677280386 0 0 0
2587 1 6.881686614458017 8.806346654541041 11.30231494911571 0 0 0
2625 1 6.339618599643791 9.122507068485405 10.373142894774775 0 0 0
2629 1 7.356183216860088 9.102699980528588 10.451929405039586 0 0 0
2628 1 6.303854816458411 9.786414931455944 11.316980770307485 0 0 0
2632 1 7.402059693399437 9.718640189330019 11.276894848309482 0 0 0
2591 1 8.075327556226313 8.82161472022419 11.246792840848153 0 0 0
2633 1 8.43781826161226 9.215164108915157 10.444120798795002 0 0 0
2636 1 8.463048232613954 9.774944043659609 11.258771005045803 0 0 0
2595 1 9.09309035348127 8.804410425608305 11.378471391035097 0 0 0
2599 1 10.163431098347342 8.80692687486044 11.327705355738669 0 0 0
2637 1 9.631794062126644 9.117776409726414 10.443231658104917 0 0 0
2640 1 9.59598247212761 9.813801836064798 11.260578212661406 0 0 0
2604 1 10.705668049188716 9.72439165242246 11.303742102094686 -1 0 0
2602 1 0.2848104864341481 10.118461185907591 10.418609920838273 0 0 0
2603 1 0.38159345444755977 10.63623314272675 11.29889486184513 0 0 0
2645 1 0.9462635915773734 11.053435698061831 10.500911278174534 0 0 0
2641 1 10.711205940581046 11.006174320208336 10.460769717240762 -1 0 0
2607 1 1.498462338908175 10.733349133626549 11.350515203992579 0 0 0
2606 1 1.3491369829945523 10.08659360533535 10.368009867323398 0 0 0
2610 1 2.557378661711469 10.0282311554725 10.385746627216623 0 0 0
2611 1 2.5067432890694077 10.659260335379951 11.346247274159007 0 0 0
2649 1 2.0119501168271277 10.855343605510164 10.473152573865345 0 0 0
2620 1 4.216488363405115 9.669550153661916 11.327994483788292 0 0 0
2653 1 3.0151386007744465 11.07912543805825 10.293272047945212 0 0 0
2614 1 3.5688755574393465 10.010780192639146 10.35043203474665 0 0 0
2615 1 3.653599246701178 10.800641727746937 11.293577210426717 0 0 0
2657 1 4.034300317828683 11.03182110085857 10.387322550566509 0 0 0
2618 1 4.615360868687609 10.152354644637747 10.416270138711136 0 0 0
2622 1 5.772741471299102 10.050329997886113 10.347605180884003 0 0 0
2619 1 4.726716792575054 10.649645739860775 11.233684719386527 0 0 0
2623 1 5.921042807969854 10.653142348186131 11.318300855367038 0 0 0
2661 1 5.199786878378006 11.101481171507091 10.420091260198717 0 0 0
2626 1 6.817428030102167 10.05169813933201 10.511147974849063 0 0 0
2627 1 6.922891686544596 10.686198427075979 11.312890302274411 0 0 0
2665 1 6.294154016708403 11.063807473666229 10.414808781454287 0 0 0
2669 1 7.457829796478744 11.05896488353898 10.42112774640304 0 0 0
2630 1 7.968811630633842 10.178384443974798 10.438026681912419 0 0 0
2631 1 7.9559621217971594 10.73074850910956 11.318959222474142 0 0 0
2673 1 8.579813762724243 11.002828174295878 10.4966663029976 0 0 0
2634 1 9.065599957982442 10.04794584318527 10.450953630075707 0 0 0
2635 1 9.058524926393272 10.681187717025608 11.384432223634793 0 0 0
2638 1 10.136845861071468 10.061418616023131 10.453472604955628 0 0 0
2639 1 10.171574640126902 10.666279588482466 11.361158314073775 0 0 0
2677 1 9.572447586603523 10.85757418733818 10.487354169813063 0 0 0
2642 1 0.38982238707420835 11.887445771130569 10.588265993885123 0 0 0
2648 1 0.7946643053201736 11.697672976918401 11.46130176840209 0 0 0
2643 1 0.19394680838285872 12.588931825725735 11.337563925590935 0 0 0
2646 1 1.5134593956378146 11.959542220314018 10.358945016113674 0 0 0
2647 1 1.2696573282246024 12.622315213796723 11.230359386681862 0 0 0
2650 1 2.5387992521793272 12.076101841454156 10.3728312064404 0 0 0
2652 1 1.8545794024161277 11.670061737407897 11.31041253460213 0 0 0
2651 1 2.4359747876297426 12.703494302339738 11.356376744173964 0 0 0
2656 1 2.9974280976825316 11.680794756140308 11.272765380466858 0 0 0
2654 1 3.581593871022281 12.03351484121168 10.451280978946 0 0 0
2660 1 4.1638229487091065 11.701382116231038 11.32526246232444 0 0 0
2655 1 3.528490203553529 12.632285875685962 11.28058174113411 0 0 0
2658 1 4.558180783617386 12.103241826925943 10.343819508223811 0 0 0
2662 1 5.688589123378449 11.978765669517909 10.44682156476222 0 0 0
2664 1 5.169216278312706 11.823770611822685 11.373492334955268 0 0 0
2659 1 4.6151128870924785 12.736755425528887 11.329539825302016 0 0 0
2663 1 5.8679254410332655 12.617193556440867 11.409354943965315 0 0 0
2666 1 7.025989750632174 11.972024708809526 10.4642804423153 0 0 0
2667 1 6.957905311471632 12.536692723616872 11.335129844167636 0 0 0
2668 1 6.401579131076374 11.667300376848171 11.237170628842746 0 0 0
2672 1 7.4577582056386085 11.64301783993331 11.369579730029537 0 0 0
2670 1 8.027123927890543 11.988685254139027 10.448656596152261 0 0 0
2676 1 8.629123953343353 11.641403304143589 11.335449704244807 0 0 0
2671 1 7.912289174416313 12.55695149328514 11.262001813572848 0 0 0
2674 1 9.15212264747029 12.00630251590867 10.459778351436382 0 0 0
2644 1 10.70746611752875 11.568741329889782 11.295203494494631 -1 0 0
2675 1 9.231183934673094 12.551945046721467 11.447539268854324 0 0 0
2678 1 10.319013832180921 11.951909385639016 10.396487156638837 0 0 0
2680 1 9.759328742316612 11.569195342338919 11.333303621700344 0 0 0
2679 1 10.23124556770961 12.51010319579828 11.250410633754681 0 0 0
2685 1 0.7532815513419057 12.836577827239486 10.331216559358671 0 0 0
2682 1 0.2452809939721457 13.88775539074351 10.363893216218052 0 0 0
2688 1 0.7689488059565457 13.48180594751875 11.40747662812238 0 0 0
2684 1 10.76744117831171 13.557289955802833 11.328687756455745 -1 0 0
2686 1 1.3546893234114434 13.810441162168496 10.541612922590348 0 0 0
2689 1 1.906590663367378 12.963346664414198 10.434232947016575 0 0 0
2690 1 2.5610782368521425 14.030049842850334 10.482819468052917 0 0 0
2692 1 1.8407375963376706 13.561606239542236 11.336215219704036 0 0 0
2693 1 2.943331896328227 13.054663148721614 10.543153716041896 0 0 0
2697 1 4.23543694745839 13.07267477383378 10.463279517695277 0 0 0
2696 1 2.9951999080522183 13.685953456621753 11.355942478667178 0 0 0
2694 1 3.5675276276519576 13.939125641866232 10.438088213858515 0 0 0
2700 1 3.9380316376970965 13.63173149377232 11.343081787057052 0 0 0
2701 1 5.301282227129643 12.970291000796228 10.388756263778435 0 0 0
2698 1 4.7802176354918124 13.919665524391037 10.449321174703531 0 0 0
2704 1 5.253671071822893 13.525464808879866 11.387398839019292 0 0 0
2702 1 5.831767541967573 13.86460821214904 10.304678473978646 0 0 0
2705 1 6.355467853421347 12.874467102286472 10.517468745581967 0 0 0
2706 1 6.92521368742045 13.88871884726841 10.443003408703067 0 0 0
2708 1 6.310808151027663 13.545052775969909 11.308177176396637 0 0 0
2712 1 7.4491702152950126 13.570419495204138 11.327756645359932 0 0 0
2709 1 7.4667250182920855 13.004912128857171 10.41553027247954 0 0 0
2713 1 8.58156939687613 12.84804931137565 10.467701046030458 0 0 0
2710 1 7.948483037151619 13.965272259545847 10.418470334070546 0 0 0
2716 1 8.434266562160087 13.515459747504956 11.305323769805723 0 0 0
2714 1 9.04276216583946 13.815182296453598 10.458611777789178 0 0 0
2681 1 -0.21676439481027643 12.85598036524955 10.459710026296488 0 0 0
2717 1 9.791503060634572 12.906830141007166 10.357988956063929 0 0 0
2718 1 10.170535350813335 14.027217623495082 10.374081821405614 0 0 0
2720 1 9.6553728797493 13.503189109342712 11.304079595669432 0 0 0
2683 1 0.28892484393035545 14.409693237109595 11.269632695600484 0 0 0
2725 1 0.834644124457208 14.689006954073152 10.479434222021164 0 0 0
2728 1 0.8400142640419967 15.448369403666781 11.264445067131609 0 0 0
2687 1 1.5269177118640813 14.527484821582707 11.322114703050064 0 0 0
2691 1 2.6043126360607713 14.652201466776052 11.27030288300194 0 0 0
2729 1 1.8730142194453845 14.847514923419915 10.473895987621178 0 0 0
2732 1 2.0411507903102786 15.472456822402552 11.266566053267585 0 0 0
2726 1 1.4094215335517624 15.732806968124294 10.417507834824761 0 0 0
2733 1 3.0223383746024464 14.918159108194423 10.356219152285528 0 0 0
2695 1 3.610120670633213 14.627070355631908 11.294349211197792 0 0 0
2737 1 4.207373160972931 14.880276215932943 10.476880815617605 0 0 0
2740 1 4.208649889395104 15.563444232394724 11.254746407594196 0 0 0
2699 1 4.790278468995145 14.552089678850656 11.374822435089323 0 0 0
2703 1 5.756371257055645 14.504585634366414 11.25496913800582 0 0 0
2741 1 5.276038042433978 14.870731309343062 10.498483091263804 0 0 0
2744 1 5.367136684487522 15.481882275946067 11.327890765944444 0 0 0
2707 1 6.803917429382633 14.66639807113509 11.36406479075111 0 0 0
2745 1 6.330489287063232 14.721491364559439 10.435081038633383 0 0 0
2748 1 6.368002817136459 15.674824864565917 11.469047717526431 0 0 0
2749 1 7.38570195847 14.827837801126442 10.56060798396134 0 0 0
2752 1 7.379044048607895 15.59909295969355 11.355770027057423 0 0 0
2711 1 7.857782236266501 14.625827769764769 11.399712651712424 0 0 0
2753 1 8.470768451044137 14.888395890315483 10.502231037743828 0 0 0
2756 1 8.488383748501512 15.54547614124599 11.330123641105661 0 0 0
2715 1 8.834506179544782 14.436706628304378 11.46659622955609 0 0 0
2721 1 -0.1567668631892709 14.937038940462552 10.3776345337129 0 0 0
2724 1 -0.19996308659022416 15.473480888389277 11.27479627611381 0 0 0
2719 1 10.060866152661184 14.533320453341835 11.33604031782292 0 0 0
2757 1 9.517250660583066 14.75360097405129 10.504082752912039 0 0 0
2760 1 9.54771258293972 15.397270747399887 11.34138164947032 0 0 0
2722 1 0.2811591259032432 15.886237942026622 10.272946034559329 0 0 0
2723 1 0.4175412633214909 16.433257462395822 11.328294744677919 0 0 0
2765 1 0.8956327482618471 16.770316046975317 10.545439133623516 0 0 0
2761 1 10.703162381947813 16.71635650353331 10.409005124828095 -1 0 0
2727 1 1.4563772466494225 16.318292868636277 11.41348035401609 0 0 0
2730 1 2.4888115392646224 15.846412644990657 10.489517938663958 0 0 0
2731 1 2.4871537689806207 16.412944400639745 11.311696923760822 0 0 0
2769 1 1.833871389503876 16.73335694685437 10.278532122806054 0 0 0
2736 1 3.1005488236432726 15.60585736378055 11.36651077653011 0 0 0
2734 1 3.604178814698091 15.853044136021825 10.431365190704069 0 0 0
2773 1 3.0041322042518517 16.748970858229946 10.400970081448847 0 0 0
2735 1 3.651004651994488 16.519704201409493 11.222825991464031 0 0 0
2777 1 4.205256230904184 16.803700174018726 10.374102347295803 0 0 0
2738 1 4.6811138084067885 15.784083375903514 10.440867518209755 0 0 0
2742 1 5.935248714073695 15.751692934954328 10.51813508394712 0 0 0
2739 1 4.636240319827294 16.465513344378138 11.446327258487537 0 0 0
2743 1 5.829395497394465 16.476628526980345 11.28918678636348 0 0 0
2781 1 5.3001447461723865 16.68463085436848 10.450170487628714 0 0 0
2746 1 6.940042101462968 15.840710873053645 10.415412248310977 0 0 0
2747 1 6.933596195446237 16.475703377235636 11.296484962174166 0 0 0
2785 1 6.3654556515367045 16.732103370681436 10.433274668933942 0 0 0
2789 1 7.497169994311947 16.798296264443447 10.455930035049162 0 0 0
2750 1 7.9466697256577765 15.75681659103795 10.399939275440234 0 0 0
2751 1 7.978266181960071 16.43422069924601 11.304534818564171 0 0 0
2793 1 8.604988576110859 16.688527419102737 10.460361730937485 0 0 0
2755 1 9.135177370623666 16.441206666885392 11.416708862889998 0 0 0
2754 1 8.97483012685785 15.755419620370422 10.382132382577758 0 0 0
2758 1 10.184312466494905 15.788066353835006 10.479273415865926 0 0 0
2759 1 10.215675889158113 16.41228098831982 11.288127389774958 0 0 0
2797 1 9.632674981870267 16.700064172326886 10.45001620733097 0 0 0
2405 1 0.8363439439225375 18.620333838812098 10.379251260394437 0 -1 0
2768 1 0.8558012402503241 17.410801201845683 11.304368563982159 0 0 0
2762 1 0.41103754715597196 17.739284584332168 10.443259808236206 0 0 0
2763 1 0.23704339069323338 18.40378885676472 11.194897468865872 0 0 0
2767 1 1.3560920543886628 18.273842177566177 11.40002760553571 0 0 0
2409 1 1.9592961870229333 -0.30544914541134577 10.408217289523229 0 0 0
2766 1 1.5462610258327734 17.714996563001982 10.495176261005296 0 0 0
2770 1 2.5585243491420826 17.778708785112165 10.50362214277842 0 0 0
2771 1 2.363918729302237 18.357118419418732 11.363585973412524 0 0 0
2772 1 2.0430853569787852 17.32019062454676 11.417225377614244 0 0 0
2417 1 4.139096919706872 18.670098747790195 10.300332832768378 0 -1 0
2413 1 3.0900332479206076 -0.33140850493784124 10.33311412977488 0 0 0
2776 1 3.036959252135723 17.393570826861705 11.268069830071608 0 0 0
2780 1 4.143930375393773 17.41300000509179 11.26696404289142 0 0 0
2774 1 3.5963460610531697 17.76008926390504 10.369442849818052 0 0 0
2775 1 3.470435885794351 18.378438633690546 11.309861398039722 0 0 0
2784 1 5.172892421283384 17.346767651118775 11.330585871538046 0 0 0
2778 1 4.672069078256949 17.621131687341396 10.340512440445828 0 0 0
2779 1 4.609820641693821 18.34056944772998 11.270131421861178 0 0 0
2782 1 5.794573509165907 17.623936881811133 10.358404806430096 0 0 0
2783 1 5.851055641630018 18.35145348479493 11.335113782005761 0 0 0
2425 1 6.453893416558265 -0.32882765137966 10.549969711233691 0 0 0
2429 1 7.56849925221702 18.6404192860071 10.438653950442882 0 -1 0
2788 1 6.4370401833988495 17.384305033761905 11.27714565103725 0 0 0
2786 1 6.950258492515895 17.71162128808749 10.473418205090319 0 0 0
2787 1 6.8519449698797885 18.302734538519868 11.392695767038179 0 0 0
2792 1 7.557480944175038 17.383820668771918 11.3953364085084 0 0 0
2790 1 7.940185281877915 17.748626835690853 10.535872400434275 0 0 0
2791 1 8.103597886368505 18.34284220912757 11.361137384847488 0 0 0
2796 1 8.719258133844612 17.369947546120788 11.216310680732114 0 0 0
2794 1 9.08325961697506 17.719128878052448 10.324574603968326 0 0 0
2795 1 9.150995702187018 18.405412420046304 11.28265978806249 0 0 0
2401 1 10.694817466531806 18.662961938127065 10.37214580655473 -1 -1 0
2764 1 10.761462754255927 17.31203847813787 11.259595064732878 -1 0 0
2437 1 9.69197650855737 18.63229218612401 10.37524207291937 0 -1 0
2798 1 10.212988771037292 17.72198157634405 10.368127814384216 0 0 0
2799 1 10.328946953667362 18.19923086915551 11.302254845717965 0 0 0
2800 1 9.69520756342931 17.408619460461132 11.17641403472275 0 0 0
2802 1 0.272226441535522 0.5476757422351696 12.263713794808522 0 0 0
2806 1 1.3619758680423613 0.5752979233484721 12.232659262419805 0 0 0
2805 1 0.8349210326665699 -0.33321146169967125 12.218193328260543 0 0 0
2810 1 2.3900638465400124 0.5403677569366226 12.197768572336722 0 0 0
2814 1 3.4956689589161125 0.4782020151484613 12.227842772412096 0 0 0
2820 1 4.127559183207134 0.16805433465296016 13.123366454589114 0 0 0
2813 1 2.993233078878849 18.62143351566866 12.285986425393094 0 -1 0
2818 1 4.606464362611236 0.4071495640735515 12.19111366919935 0 0 0
2822 1 5.7725180843928285 0.48321940036898403 12.274027496838244 0 0 0
2821 1 5.28624046655996 18.65045816637048 12.183471653869168 0 -1 0
2824 1 5.329964584910371 0.16961941120171753 13.190501989930956 0 0 0
2826 1 6.891105737588624 0.48537515905064543 12.355661892458354 0 0 0
2825 1 6.5235528637737925 18.5899591019774 12.359707671625932 0 -1 0
2829 1 7.544949905712616 18.674018047152114 12.263854666301727 0 -1 0
2828 1 6.398696274830828 0.2104397750164021 13.236380488841165 0 0 0
2830 1 7.980433683041883 0.6127330150624418 12.354022664759597 0 0 0
2836 1 8.66327908403348 0.18363126772583782 13.165996176524573 0 0 0
2833 1 8.607811771485544 18.667159250211174 12.352792721263095 0 -1 0
2834 1 9.102970065994718 0.6082101535521667 12.269609568517252 0 0 0
2804 1 -0.19176286555271105 0.20682412038139963 13.152253798347836 0 0 0
2838 1 10.243375208805414 0.4002443521436777 12.25521462944643 0 0 0
2801 1 -0.20995220605922413 18.595342341741038 12.370612535285142 0 -1 0
2803 1 0.28858662126154433 1.1948653534882427 13.103033117062633 0 0 0
2845 1 0.7972067889575771 1.4769183135990374 12.246922186911258 0 0 0
2842 1 0.17430847539608552 2.369670590777376 12.293266309668224 0 0 0
2848 1 0.8842209515789754 2.1505964514399527 13.126776308625898 0 0 0
2849 1 1.990783024786377 1.5340068703094643 12.221901890655815 0 0 0
2850 1 2.5730247490184457 2.484238326076865 12.251919147492064 0 0 0
2807 1 1.4055411049069388 1.3455907830638452 13.034400246973084 0 0 0
2811 1 2.496698384787243 1.1578868832552578 13.011079891688544 0 0 0
2852 1 2.062478040820189 2.1953697954664984 13.076774170868399 0 0 0
2853 1 3.0426656367237337 1.434797549109654 12.161400592269514 0 0 0
2857 1 4.131079451504992 1.4223927803738883 12.2391283418144 0 0 0
2815 1 3.599888964714158 1.1510124156133215 13.12094834014553 0 0 0
2854 1 3.6433848568259384 2.5938384081645407 12.318515333373723 0 0 0
2856 1 3.162761027180025 2.236768330725998 13.18768154337684 0 0 0
2861 1 5.306518841377797 1.5590285531944386 12.314759381290044 0 0 0
2858 1 4.768238285403564 2.45867195102064 12.401947621220545 0 0 0
2862 1 5.850413121999871 2.465397729146626 12.26087507096139 0 0 0
2864 1 5.372780010373497 2.0822395035120693 13.17507832823122 0 0 0
2819 1 4.8051370735284324 1.1586136278644517 13.079570008554338 0 0 0
2865 1 6.339470683592399 1.3455163672865316 12.343380620778033 0 0 0
2869 1 7.500264580029012 1.4751571607790428 12.33171355759828 0 0 0
2866 1 6.940279292124213 2.3530947512119953 12.104429249416071 0 0 0
2873 1 8.594308060543455 1.4458994271472991 12.276313442018854 0 0 0
2870 1 7.994919794689136 2.507721846285429 12.18582363832031 0 0 0
2831 1 8.073431622988092 1.2456843714997008 13.162386484000988 0 0 0
2876 1 8.630271151057439 2.2247376844077746 13.233145645363527 0 0 0
2835 1 9.217505466670485 1.2187555986667384 13.074777572265484 0 0 0
2874 1 9.05561385030937 2.3995733849736873 12.236955586321512 0 0 0
2841 1 10.626494592527578 1.3530910787823074 12.268136661737744 -1 0 0
2877 1 9.639714567022658 1.523455001554263 12.204982373165251 0 0 0
2878 1 10.137823845123489 2.4240990512943204 12.269358772584187 0 0 0
2885 1 0.8940542305388597 3.399499736458246 12.225581760122257 0 0 0
2846 1 1.4593990144076565 2.3623882226308845 12.230623003853934 0 0 0
2889 1 1.9468201605683704 3.2829568358701016 12.221278339223176 0 0 0
2851 1 2.677820446546831 3.1473854832798738 13.126994847683042 0 0 0
2893 1 3.052471473445349 3.449113473839195 12.220997350317981 0 0 0
2897 1 4.212632915171143 3.4192922933195242 12.277555007221908 0 0 0
2901 1 5.256085587151536 3.4341380784432114 12.292874426008554 0 0 0
2859 1 4.744882742890208 3.263627942798903 13.217109130552695 0 0 0
2905 1 6.448014110274777 3.4143941105240874 12.269618866119558 0 0 0
2909 1 7.498587528845887 3.371535774832249 12.282894836778397 0 0 0
2867 1 6.978055518491548 3.1488389028732184 13.101542546141879 0 0 0
2912 1 7.438501005135499 4.10155095465375 13.122154589060258 0 0 0
2908 1 6.4140972438959025 4.037729347882444 13.157530648455975 0 0 0
2913 1 8.60297494950958 3.3475791567516673 12.288956236804072 0 0 0
2871 1 8.075432235087163 3.159863822757492 13.295125360391099 0 0 0
2875 1 9.071595680646997 3.1079489855130027 13.279876283479117 0 0 0
2881 1 10.759459505380743 3.2970569952811797 12.225330406266247 -1 0 0
2917 1 9.602658842834241 3.3385066059845236 12.171375246142157 0 0 0
2879 1 10.121289330182734 3.1218164341730605 13.103639521564979 0 0 0
2882 1 0.3599278071597828 4.377389467061045 12.183182664975453 0 0 0
2925 1 0.9718591287486378 5.340904122318458 12.212884023905888 0 0 0
2921 1 10.745505500259622 5.2674203494568435 12.057343475373846 -1 0 0
2883 1 0.3862161074000492 4.936748160826732 13.114494964827953 0 0 0
2888 1 0.9003784171799136 4.0582826898146225 13.045450841358972 0 0 0
2886 1 1.4547875682050457 4.364131078738015 12.228029549405916 0 0 0
2890 1 2.5742160059256864 4.391309139369199 12.12615925618415 0 0 0
2929 1 2.070441414874483 5.402724065873107 12.170382053488868 0 0 0
2891 1 2.618815414322782 5.064509837760731 13.004302946400779 0 0 0
2900 1 4.1242594144804805 4.1034127599004835 13.126988530359379 0 0 0
2894 1 3.609786794977354 4.377471450208817 12.01076882041517 0 0 0
2937 1 4.139123566537153 5.262966899547391 12.160280272065414 0 0 0
2933 1 3.0698536908406484 5.3802745325474115 12.025662713637349 0 0 0
2898 1 4.732359420861137 4.375015304296446 12.09874453243916 0 0 0
2902 1 5.933181111136681 4.399750020949476 12.274575949031279 0 0 0
2941 1 5.3343872325670505 5.392558985867486 12.144219732922146 0 0 0
2899 1 4.702539543846265 4.951015419859803 13.061953483871479 0 0 0
2903 1 5.955047895358642 5.099211499854599 13.022085364480573 0 0 0
2906 1 6.8897544336765115 4.460239313604958 12.184621039028938 0 0 0
2945 1 6.380215263080555 5.357800795147283 12.155173493801327 0 0 0
2949 1 7.574070819805025 5.325145956839678 12.259890437716564 0 0 0
2910 1 8.07455409994671 4.345973098072407 12.319873882282621 0 0 0
2953 1 8.660704543329839 5.1922257611694125 12.18469694058984 0 0 0
2915 1 9.1945390951743 4.96760284591186 13.028992193966495 0 0 0
2916 1 8.672115398649204 4.065186955011088 13.184166398456792 0 0 0
2911 1 8.084855103546683 4.97402577418551 13.148489833870734 0 0 0
2914 1 9.199530452602826 4.254117352102946 12.19528732136542 0 0 0
2918 1 10.205107095504754 4.3005222540736066 12.193940117873142 0 0 0
2957 1 9.672226047624047 5.204918364856432 12.109361948869655 0 0 0
2919 1 10.312803432698882 5.071590440933386 13.080888006614945 0 0 0
2884 1 10.710181329405685 4.068660019402592 13.052458638381424 -1 0 0
2922 1 0.36408219614716986 6.234011719924057 12.046358979917507 0 0 0
2926 1 1.524539355818231 6.297730078499595 12.196563764477922 0 0 0
2930 1 2.5860665789245987 6.252237241751915 12.1980046849494 0 0 0
2931 1 2.6153401239483904 6.941391390027519 12.963118081169123 0 0 0
2934 1 3.7788216179989615 6.232919953529821 12.164694289825727 0 0 0
2940 1 4.147437624205224 5.998795260100322 13.147158421485178 0 0 0
2935 1 3.7058245419446476 6.9262159109754595 13.138456347451637 0 0 0
2938 1 4.812599950208957 6.207375251453471 12.186382858618229 0 0 0
2942 1 5.800551056067746 6.290858497017981 12.223710224945904 0 0 0
2939 1 4.741528308251095 6.81189238532015 13.073842299278432 0 0 0
2946 1 6.936356789402273 6.273746946566923 12.202549601877852 0 0 0
2952 1 7.474226340769906 6.098307517127028 13.040000788828335 0 0 0
2947 1 6.968894680435851 6.9644330806841355 13.051497778923302 0 0 0
2950 1 8.042315235974737 6.301349625746585 12.226306602507588 0 0 0
2954 1 9.082164641071511 6.205100617899864 12.107032375446368 0 0 0
2956 1 8.626342857479706 5.979427493197193 13.048065203346283 0 0 0
2951 1 8.075083021202033 6.989926270848291 13.062271380707376 0 0 0
2958 1 10.2066389467218 6.110848556751813 12.21013064444754 0 0 0
2960 1 9.725526116275812 5.901236614610796 13.060025890416185 0 0 0
2962 1 0.21910512157598844 8.218730401831525 12.176993399950835 0 0 0
2965 1 0.8758967262202031 7.180016473980348 12.172537824261486 0 0 0
2966 1 1.2967790057695419 8.113452893632557 12.200464360260307 0 0 0
2969 1 2.083059829783951 7.221601600065781 12.146288151986447 0 0 0
2970 1 2.597862695822154 8.096067097770037 12.271117843041289 0 0 0
2973 1 3.304333884558215 7.138733303861122 12.210389628016044 0 0 0
2974 1 3.5509988898858467 8.123019624251073 12.259911583608318 0 0 0
2977 1 4.305491681524417 7.248112131759918 12.279077135878898 0 0 0
2980 1 4.197266908041554 7.855536831428765 13.047944744816899 0 0 0
2978 1 4.770796145720578 8.217087069805444 12.155628586747357 0 0 0
2981 1 5.345437924954357 7.288847506300665 12.200090387946789 0 0 0
2982 1 5.893000917528283 8.151088068088892 12.312727694590432 0 0 0
2985 1 6.405890686440189 7.145144310561285 12.230007643795288 0 0 0
2986 1 6.939372303066595 8.088950462770962 12.189195889621276 0 0 0
2989 1 7.4740358868922545 7.164266033650428 12.214298188483445 0 0 0
2988 1 6.5032461296801864 7.878788777970408 13.131474518850949 0 0 0
2990 1 8.149225124021907 8.184979617208578 12.215502003265074 0 0 0
2993 1 8.595363657824969 7.231777844672732 12.231071430351529 0 0 0
2994 1 9.120113559165496 8.166998922725185 12.27460365251807 0 0 0
2961 1 10.714756284799044 7.162842037925909 12.186064155678208 -1 0 0
2997 1 9.640378313794677 7.247926411839943 12.146551479609915 0 0 0
2998 1 10.159421220369008 8.123458998968747 12.144940850244572 0 0 0
3005 1 0.8593151024681072 9.037364091555368 12.245495014181287 0 0 0
3001 1 -0.21970791835641634 9.23224722984987 12.195816393415035 0 0 0
3009 1 1.9273897920359842 8.941708317478666 12.16180116876457 0 0 0
3016 1 3.1508801342911794 9.683782063783962 13.095904211322011 0 0 0
2971 1 2.575062711029899 8.809051033249121 13.068468831960583 0 0 0
3012 1 1.9362825675992466 9.628564845250235 13.04807968118327 0 0 0
3013 1 3.0699322183869033 9.072021836021753 12.242967930285104 0 0 0
3017 1 4.135768696233642 9.039038356125069 12.276167405005475 0 0 0
3021 1 5.2186727054590785 9.198493675574703 12.119120967855864 0 0 0
3024 1 5.155792123838201 9.735305699850857 13.113531737884315 0 0 0
2979 1 4.817136750170028 8.757348163769908 13.175514827191718 0 0 0
3025 1 6.281613692372054 9.151970578412795 12.118149174957633 0 0 0
3029 1 7.460772368578484 9.090947531154415 12.175674161971685 0 0 0
3028 1 6.285066226136796 9.747645999513361 13.061379375497305 0 0 0
3033 1 8.507559643028884 9.168341861633314 12.161176632779155 0 0 0
2991 1 7.984612334173225 8.836973079396454 13.026667907239446 0 0 0
3036 1 8.419813849547236 9.783484975393117 13.054047723014692 0 0 0
3037 1 9.672304768672536 9.060406576086047 12.264831671821495 0 0 0
3040 1 9.679749530226957 9.696082441613155 13.068875224759964 0 0 0
3002 1 0.36513535759555615 10.053834321475325 12.255190125178556 0 0 0
3045 1 0.9967188249898911 11.006941974224114 12.226429532705934 0 0 0
3041 1 10.735485205832916 11.048415742831278 12.14796184906733 -1 0 0
3006 1 1.3969084100998146 10.016960846671582 12.269483621934244 0 0 0
3010 1 2.5413102968898142 10.023241996020063 12.177540912806261 0 0 0
3049 1 2.022353604018308 11.031481344736335 12.205198069214772 0 0 0
3053 1 3.086073677185264 10.998372826665546 12.240031537544903 0 0 0
3014 1 3.760175629964466 10.145368126275086 12.104961101589716 0 0 0
3057 1 4.2070738650304245 11.03099963626238 12.065687606165625 0 0 0
3015 1 3.668151836300894 10.704511608126667 13.011502157748861 0 0 0
3020 1 4.123702524954976 9.66026523331749 13.132056034714855 0 0 0
3018 1 4.801460878946874 10.098302248815234 12.216586315180859 0 0 0
3022 1 5.791699017278579 10.140602908180643 12.136401210139734 0 0 0
3061 1 5.192920185435284 11.012471010751034 12.130061085817829 0 0 0
3019 1 4.709140063134134 10.745707912093689 12.99659596581513 0 0 0
3026 1 6.8974029686559195 10.162164767973396 12.218441555151383 0 0 0
3065 1 6.260003452414659 11.130980892599277 12.286073313722806 0 0 0
3069 1 7.486764480173066 11.063985489121928 12.214568360819252 0 0 0
3027 1 6.9990272882214715 10.765978712765813 13.006763133678461 0 0 0
3030 1 7.958225479254332 9.984706251760231 12.094868464272164 0 0 0
3073 1 8.510213656734745 10.93073858876245 12.254718313020271 0 0 0
3034 1 9.127915315348691 10.022344248646116 12.194241588415517 0 0 0
3031 1 7.977665270207432 10.663826623206667 13.136206358894176 0 0 0
3035 1 9.047918506601029 10.609140425440359 13.11784535190559 0 0 0
3038 1 10.232170567688332 10.057155697166944 12.238222331074487 0 0 0
3077 1 9.632633114345143 10.908684900593416 12.261326604605905 0 0 0
3042 1 0.24193909786163387 11.946517561254726 12.353208463003355 0 0 0
3046 1 1.3231786169270492 12.02392877005243 12.220906955624654 0 0 0
3050 1 2.5661303319192235 12.087055387286357 12.186046228332904 0 0 0
3047 1 1.3722899345137318 12.629666790554754 13.127573381441675 0 0 0
3051 1 2.4112416159687684 12.625447033754142 13.014345679361517 0 0 0
3054 1 3.5639468030411474 11.922664035357755 12.139038596079628 0 0 0
3060 1 4.06094353758561 11.751013313324997 13.14606356657519 0 0 0
3058 1 4.649960539332355 11.971725164040839 12.26832730560152 0 0 0
3062 1 5.735021107653971 12.00634478267626 12.31870121614278 0 0 0
3064 1 5.148154919885556 11.691365809733083 13.196027009627638 0 0 0
3066 1 6.9323089240340545 12.037650182540194 12.231459680029442 0 0 0
3067 1 6.786634276632764 12.603705452523318 13.187275969705105 0 0 0
3070 1 7.9929603642183755 11.987071046253499 12.17138028731185 0 0 0
3075 1 9.115327202545515 12.552115673929013 13.22834909207836 0 0 0
3074 1 9.18620989084393 11.883644078748265 12.264535107927523 0 0 0
3078 1 10.224081235327684 12.006920076064103 12.18244050305353 0 0 0
3080 1 9.603050933455538 11.512268315496373 13.116944003001397 0 0 0
3085 1 0.7667831100659624 12.890518681537278 12.310936631288737 0 0 0
3082 1 0.25139453346801827 13.905526083764556 12.257043639893457 0 0 0
3081 1 10.773297848176458 12.936126698714018 12.115625388557712 -1 0 0
3089 1 1.9185443889246812 12.99747517139783 12.22647955632855 0 0 0
3086 1 1.3452269125060365 13.895444754335864 12.18957684860613 0 0 0
3090 1 2.5281709891317115 13.893643264357074 12.22278015157341 0 0 0
3092 1 1.8879754261787904 13.577234867995664 13.12845801247243 0 0 0
3093 1 3.0094804237258184 12.99643619329505 12.165540846700122 0 0 0
3097 1 4.02321952758612 13.005907261660418 12.197646186753605 0 0 0
3094 1 3.5724572454155146 14.036096408355284 12.139813724514687 0 0 0
3100 1 4.167112390592399 13.610647819045074 13.164975516172166 0 0 0
3101 1 5.188758755723901 12.914025212333874 12.29813768018851 0 0 0
3098 1 4.619785310610273 13.964420927262571 12.196608786877945 0 0 0
3102 1 5.797811759281466 13.907735251730985 12.272333233862946 0 0 0
3109 1 7.472936775736165 12.887342357487839 12.193263716819688 0 0 0
3105 1 6.36056392393883 12.914998409965301 12.2992334105762 0 0 0
3106 1 6.87849187525309 13.852763824272829 12.244787742403968 0 0 0
3108 1 6.312227524609826 13.644751408370173 13.233013046798916 0 0 0
3113 1 8.489694488236843 12.92623236561973 12.103835930694197 0 0 0
3110 1 7.955525000942347 13.89374583026161 12.225344203859521 0 0 0
3114 1 9.19299821299855 13.855093055529458 12.215789607114194 0 0 0
3117 1 9.662621283737305 12.820836949865345 12.390118834091012 0 0 0
3118 1 10.27092302516899 13.905772407907277 12.142535705990575 0 0 0
3084 1 10.736939425644284 13.487044951281074 13.024490686349212 -1 0 0
3120 1 9.693522366494118 13.642498996957922 13.081108900000476 0 0 0
3125 1 0.8655689352576883 14.795052494224771 12.102479454629723 0 0 0
3083 1 0.35135609943177093 14.595050133499736 13.1415349348324 0 0 0
3126 1 1.389376029520659 15.684984524505847 12.212994828542628 0 0 0
3128 1 0.9618836791591587 15.458081372228474 13.149519082968064 0 0 0
3129 1 1.9846944878440809 14.799463293372659 12.234450598958539 0 0 0
3132 1 1.9581769438178322 15.61133794456794 13.073507145595086 0 0 0
3133 1 2.9783341884472705 14.921715770058901 12.190160144651754 0 0 0
3137 1 4.088782907792516 14.941112359289045 12.145833676027584 0 0 0
3141 1 5.2951493105657725 14.904211039499957 12.207636968247552 0 0 0
3103 1 5.807443475226371 14.612436013209784 12.99631185734622 0 0 0
3144 1 5.295111819510081 15.661435524395252 13.117715406218592 0 0 0
3145 1 6.340614887630386 14.86479095393448 12.17402949466433 0 0 0
3149 1 7.322482065983723 14.930731657268375 12.227840806160792 0 0 0
3152 1 7.589513178727189 15.433534045497357 13.148708805327296 0 0 0
3153 1 8.316915094130895 14.925282466309119 12.244260309704325 0 0 0
3111 1 8.046387349288992 14.38480187447676 13.275363053857085 0 0 0
3156 1 8.555162589218124 15.500576940044613 13.28061843137745 0 0 0
3121 1 -0.2155470201334358 14.813936853456216 12.226264245501172 0 0 0
3157 1 9.739429913833355 14.897014679804323 12.17260779881114 0 0 0
3160 1 9.74498796550846 15.384403563853567 13.055448160683436 0 0 0
3119 1 10.260059188413159 14.471818207586212 13.035145142027089 0 0 0
3122 1 0.34906205028167625 15.875611468531638 12.265572476902088 0 0 0
3165 1 0.8738450730080563 16.813234131150402 12.201824129804878 0 0 0
3130 1 2.461229209817823 15.835124236071042 12.160171687990905 0 0 0
3169 1 1.9207713037658025 16.72237929078875 12.34810795911509 0 0 0
3131 1 2.5159779089317467 16.523894757281244 13.173193255051183 0 0 0
3134 1 3.6541068479056538 15.826726719168875 12.23322595799154 0 0 0
3173 1 3.0311796687676327 16.707064959446903 12.209455663261846 0 0 0
3177 1 4.14270867818764 16.796850399502954 12.24733464991518 0 0 0
3142 1 5.848632796405786 16.02512070713748 12.321843563157008 0 0 0
3138 1 4.808084669563187 15.850540882758935 12.30697113413871 0 0 0
3181 1 5.284568776649089 16.89166287028933 12.188170657526166 0 0 0
3143 1 5.998319597453108 16.495781228737812 13.257184437565737 0 0 0
3146 1 6.827934981804879 15.876740950332845 12.271844976165468 0 0 0
3185 1 6.431624188722315 16.88438860143307 12.241317427244502 0 0 0
3189 1 7.459986326118781 16.781595976708985 12.19278026745693 0 0 0
3150 1 7.864029473718326 15.854917977305945 12.239986465666917 0 0 0
3154 1 9.101427949285824 15.690665926896799 12.279249227740454 0 0 0
3193 1 8.571883288742509 16.748093789797895 12.256834241481515 0 0 0
3155 1 9.190478153140738 16.327849284000532 13.1841932808532 0 0 0
3161 1 -0.16850884840876657 16.713491590754913 12.164055808432996 0 0 0
3158 1 10.296190381322777 15.796170716786644 12.046138760596989 0 0 0
3197 1 9.727565919464702 16.74033963079024 12.235260164208764 0 0 0
3159 1 10.318908556092723 16.459280831617384 13.040821490951377 0 0 0
3162 1 0.3487086031023844 17.76647061733125 12.133447078164176 0 0 0
2809 1 1.9353353539106797 18.56542011228071 12.23073662169356 0 -1 0
3166 1 1.3680236819109568 17.685311363726406 12.25169631069864 0 0 0
3170 1 2.5340110939503844 17.716485479216814 12.26427833226982 0 0 0
2817 1 4.118808119983284 18.620138334377767 12.19837823921932 0 -1 0
3174 1 3.633948728269813 17.71504099074546 12.236606278852754 0 0 0
3178 1 4.733935271082257 17.775069132957437 12.209468883461058 0 0 0
3182 1 5.727863366803191 17.823042459991573 12.184952728761163 0 0 0
3183 1 5.806129506508186 18.39757416584713 13.192247286703271 0 0 0
3186 1 7.042396114097582 17.648287167578612 12.397746486070028 0 0 0
3188 1 6.370122492665596 17.559384880529347 13.131989609399918 0 0 0
3192 1 7.61129026541975 17.424269405989033 13.165294796432441 0 0 0
3190 1 8.014851297228411 17.620580729517506 12.197261992834791 0 0 0
3194 1 9.151281180925569 17.653067187162833 12.17726069170131 0 0 0
3191 1 8.038902616820874 18.3601609777068 13.124577898760656 0 0 0
2837 1 9.706816974609737 18.55676687001036 12.225545077644515 0 -1 0
3198 1 10.176547410581588 17.622510342681707 12.157476103847369 0 0 0
2808 1 0.8516711269125725 0.19321148622895845 13.131121016109443 0 0 0
3202 1 0.36044713547358764 0.5870694865177627 13.991719289406413 0 0 0
3205 1 0.8881316788100435 -0.37274937709294736 14.042968318857165 0 0 0
3201 1 -0.12329309373992693 -0.3212117191629808 14.047713519854842 0 0 0
3206 1 1.4174558524611287 0.5427321828002087 13.945502237453415 0 0 0
2812 1 1.8547912888314095 0.2846213937290316 13.075173913497226 0 0 0
3210 1 2.489831891202626 0.5967046834316616 13.944731900806616 0 0 0
2816 1 3.0235114958390583 0.18977463452295018 13.090213623765072 0 0 0
3214 1 3.640634913554776 0.4994809509501663 14.047243572432404 0 0 0
3213 1 3.0763231184417608 18.662752662968963 13.97927394798442 0 -1 0
3217 1 4.274925746306317 18.64543637720863 14.094838061482 0 -1 0
3218 1 4.736913222644865 0.46672644540707764 13.914314038485958 0 0 0
3222 1 5.882078925464054 0.5067048521394729 14.01031670185603 0 0 0
2832 1 7.503572463942197 0.15451880761313885 13.276782580442333 0 0 0
3226 1 6.927288332041529 0.6601153380748923 14.106181815834011 0 0 0
3225 1 6.424227799840461 18.649950572145745 14.100144328771268 0 -1 0
3230 1 8.101862239249819 0.5262072282626277 14.044696480579859 0 0 0
3233 1 8.612588029740241 18.61962965813558 14.003709424234753 0 -1 0
3234 1 9.19893982301905 0.6298671619108831 14.03593930461448 0 0 0
2840 1 9.652785910189113 0.024666325938047295 13.079793995121685 0 0 0
3238 1 10.328634633688463 0.5645138115362615 14.061992740714949 0 0 0
3237 1 9.652457004528657 -0.3143698616863943 13.972097738534991 0 0 0
2844 1 10.688142872659565 2.036164388813864 13.089034194379456 -1 0 0
3245 1 0.9566274196812612 1.4489733277539576 13.934248663893758 0 0 0
3242 1 0.36562457550110217 2.356408615014205 13.985462196065347 0 0 0
3241 1 10.771295679917426 1.5067480659825763 14.039818274792106 -1 0 0
3249 1 2.029188792183566 1.5353649484638194 13.986657133229452 0 0 0
3250 1 2.514007685839253 2.4405868256963053 13.928280339805857 0 0 0
3246 1 1.4042441923560849 2.467560480004398 13.95957386706305 0 0 0
2860 1 4.131303236092339 2.137131619516099 13.187307593247429 0 0 0
3253 1 3.022934009074397 1.4631742295958965 14.070019694734482 0 0 0
3257 1 4.15084891794879 1.6450126421941276 14.145949802112948 0 0 0
3254 1 3.5004390431618795 2.479190634722609 14.162724245386054 0 0 0
2823 1 5.829243958384614 1.1334654053604694 13.239941039615442 0 0 0
3261 1 5.294590508933495 1.4693159673290417 14.1199899201057 0 0 0
3262 1 5.898638588443014 2.4272045667537867 14.076080101693618 0 0 0
3258 1 4.841873615582615 2.5842832135003064 13.97508013015136 0 0 0
2827 1 7.003214666708433 1.068997367538407 13.188949444319233 0 0 0
2868 1 6.4002317370771955 2.007681033721274 13.155452266715528 0 0 0
2872 1 7.575149273098434 2.148555390994443 13.233019644500144 0 0 0
3265 1 6.351851667887125 1.4863315525753735 14.082624230355455 0 0 0
3269 1 7.592630087588428 1.4876423492387363 14.009417151662381 0 0 0
3266 1 6.991795402523604 2.341153619380392 14.168899345235948 0 0 0
3273 1 8.65829207543604 1.5586134075341405 14.045406919397152 0 0 0
3270 1 8.052495358548203 2.5341819345902783 14.113121235657193 0 0 0
3274 1 9.125528636736075 2.477141682813746 14.192013299400369 0 0 0
2839 1 10.196714379190219 1.0958146156203965 13.147634063385874 0 0 0
2880 1 9.601026236048352 2.200892726084654 13.271028169302424 0 0 0
3277 1 9.786847179628626 1.5990108438482322 14.074605517738082 0 0 0
3278 1 10.323383170438415 2.5264996618211053 14.089149824596154 0 0 0
2843 1 0.25105459409817316 3.153982030199979 13.186423166452425 0 0 0
3285 1 0.901793498732838 3.4033661577168224 14.064597413150587 0 0 0
2847 1 1.3683119407678328 3.0985682965789465 13.097130632618493 0 0 0
3289 1 1.9495675083426391 3.376670883645123 14.044896874801308 0 0 0
2892 1 1.9558044396720917 3.9751971554687264 13.03990544796338 0 0 0
2855 1 3.686036978883973 3.1906064002107755 13.257426772683027 0 0 0
3293 1 3.127637230623719 3.3832624867855587 14.054507866894587 0 0 0
3297 1 4.209801204233967 3.4125964676115417 14.132443028305369 0 0 0
2896 1 3.0764280983988757 4.171952635860821 13.084144387129507 0 0 0
2863 1 5.760424561285776 3.1273081125163213 13.313664700855297 0 0 0
3301 1 5.301914210425535 3.564682774145278 14.042150983826355 0 0 0
3305 1 6.479852700242808 3.4523455537679046 14.048013322672325 0 0 0
3309 1 7.483702430798683 3.473086817649307 14.036860496461642 0 0 0
3313 1 8.569926538232501 3.4473450519572464 14.132356773217879 0 0 0
3281 1 10.743059283819136 3.496749035295066 13.994280139730451 -1 0 0
3317 1 9.68382862889138 3.5820979491994396 14.117198442572098 0 0 0
3282 1 0.3835428772886095 4.361754419828812 13.980359117831867 0 0 0
3325 1 0.7711475593194442 5.217093247315424 13.99897655544273 0 0 0
2887 1 1.504465722128167 4.944316132388826 13.1062541882229 0 0 0
3286 1 1.5018396171379336 4.417847947610045 13.93625922293027 0 0 0
3290 1 2.563560030924225 4.30056229636052 14.004211114355934 0 0 0
3329 1 2.0311720775096016 5.234799155056429 13.954805325035096 0 0 0
2895 1 3.702077859784213 5.064162265897669 13.1062172609103 0 0 0
3294 1 3.6835945281718416 4.351309293899451 14.043888925210014 0 0 0
3337 1 4.1693797480974775 5.273409418348567 13.993678811575457 0 0 0
3333 1 3.1781699015886002 5.191502875696428 14.00001774281976 0 0 0
2904 1 5.390728693483614 4.220676856635478 13.206321684626628 0 0 0
3298 1 4.731720638777446 4.344884223158478 13.962339141419701 0 0 0
3302 1 5.894808861803695 4.4099581979121005 14.058378975075106 0 0 0
3341 1 5.341467234483333 5.30134977383168 13.984860277842124 0 0 0
2907 1 7.001136676349763 4.965676449299274 13.172628123714771 0 0 0
3306 1 6.960844159308328 4.419368322692341 14.038249007437372 0 0 0
3349 1 7.49302673708672 5.398903692313827 13.976785673620169 0 0 0
3345 1 6.404184670360017 5.424395708683064 13.978655309084406 0 0 0
3310 1 8.042263037994442 4.359897073566822 14.035314364269956 0 0 0
3353 1 8.472169054465837 5.362177271037152 14.014538258609774 0 0 0
3314 1 9.062068322083352 4.422629564464594 14.040151291397029 0 0 0
2920 1 9.64844894253222 4.092636994398007 13.202345640122259 0 0 0
3321 1 10.737492427291876 5.427378770252489 14.056251258364135 -1 0 0
3318 1 10.32691817374105 4.401144307309151 13.93621920969959 0 0 0
3357 1 9.673805091804986 5.267246760654587 14.05655754597395 0 0 0
2928 1 0.9304556884888002 5.9078912904629854 13.038713918744453 0 0 0
3322 1 0.3324584486361827 6.335694577891381 14.051522618789008 0 0 0
2923 1 0.4781652005362438 6.810072202336638 13.077878726725698 0 0 0
2932 1 2.046531806472592 6.0028129625952475 13.121255810540998 0 0 0
2927 1 1.5066070504943474 6.904871377347758 13.046919923999202 0 0 0
3326 1 1.3540379766666129 6.10638445198852 13.956675842887057 0 0 0
3330 1 2.565774514614663 6.080973429586525 14.018442592019735 0 0 0
2936 1 3.1034006041962496 6.005326366143953 12.994343489168937 0 0 0
3334 1 3.7117838255659037 6.171521904665382 14.04226793717435 0 0 0
2944 1 5.333989212092049 5.954709137747829 13.07602296536082 0 0 0
2943 1 5.92731838014187 6.974096684651247 13.052895937171304 0 0 0
3338 1 4.8041694854871375 6.273241764938347 13.965524953491736 0 0 0
3342 1 5.851085318185598 6.225617685807336 13.980918373507436 0 0 0
2948 1 6.484637930173077 6.026068423333386 13.071239390600889 0 0 0
3346 1 6.926725381017451 6.248826056554854 14.009705086457958 0 0 0
3350 1 8.025211344108335 6.343335917893482 13.936229429509467 0 0 0
2959 1 10.196059702707089 6.999481643878941 13.124562966248407 0 0 0
2924 1 -0.04866193833100141 5.902744287127052 13.058777157873584 0 0 0
3354 1 9.079625079261085 6.287363843125802 13.904927177686696 0 0 0
3358 1 10.227826573820067 6.253748196691611 13.820718411468373 0 0 0
2968 1 0.8719229885038886 7.811967517852597 13.081443013849515 0 0 0
3362 1 0.3699721581977363 8.149328856985004 13.878113177740905 0 0 0
3365 1 0.9600077623004482 7.273373186575848 13.986143281606065 0 0 0
2972 1 1.913901512533192 7.831823123188409 13.059019652274959 0 0 0
3366 1 1.440221448882625 8.185764379440279 14.00446422249035 0 0 0
3369 1 2.0591778822495197 7.083993554116407 13.9894678651661 0 0 0
3370 1 2.4759503238553036 8.05519510076163 14.00219608260409 0 0 0
2976 1 3.081819476036989 7.788926344365253 13.184191828429157 0 0 0
3373 1 3.1208181425446977 7.173780928543739 13.902051928965786 0 0 0
3374 1 3.849416965130759 8.163451015310208 13.982658777916107 0 0 0
3377 1 4.2971239098224325 7.1843444439882225 13.98512185892763 0 0 0
2984 1 5.344037687309936 7.856601362835763 13.087043011036217 0 0 0
3378 1 4.87584368878151 8.02830889058228 13.94941588892031 0 0 0
3381 1 5.420575331300423 7.158049222312648 13.890846486295661 0 0 0
3382 1 5.971708821302688 8.220470327967652 14.00591437866877 0 0 0
3385 1 6.4666266111126625 7.2376206481199485 13.978453425421412 0 0 0
3386 1 6.976290069442209 8.24244701291635 13.983081821411117 0 0 0
3389 1 7.474104173146627 7.241374634251301 13.899675665500991 0 0 0
2992 1 7.561719670489247 7.869915974338252 13.064254516885274 0 0 0
2955 1 9.12175281455951 6.89271642713578 13.054817045861222 0 0 0
2996 1 8.649921118642624 7.9232303260678165 13.137587143515988 0 0 0
3390 1 8.083721405203278 8.185170955557064 13.950344228467793 0 0 0
3393 1 8.535391694915859 7.272201241079255 13.994548950365642 0 0 0
3394 1 9.126637761523568 8.203059674975975 13.932399054187117 0 0 0
2964 1 -0.15336836769799783 7.8462910043372815 13.055156761394823 0 0 0
3000 1 9.808332411843576 7.997807641461389 13.016436827499662 0 0 0
3361 1 -0.09191695590607624 7.243615831638985 13.878935912950432 0 0 0
3397 1 9.685224147668265 7.327115463793487 13.917326199052573 0 0 0
3398 1 10.196837659396998 8.13889501217244 13.908765781401861 0 0 0
3008 1 0.9216192740260425 9.784187658390827 13.123990471263067 0 0 0
2963 1 0.21315717422854064 8.794879210311114 13.080196628471686 0 0 0
3405 1 0.8953521404189213 9.137328471980561 14.018336337113292 0 0 0
2967 1 1.3593726081334996 8.807300304483723 13.086086526902955 0 0 0
3409 1 1.9064730274845485 9.106322574184743 13.97952354896499 0 0 0
2975 1 3.5850686057473156 8.752419354646907 13.163697259111453 0 0 0
3413 1 2.928005767686459 9.171584126026906 14.090099971436121 0 0 0
3417 1 4.134016917348881 9.234546698156548 14.13165740911286 0 0 0
2983 1 5.860281035648029 8.829008271939465 13.05954584645712 0 0 0
3421 1 5.269405281897719 9.01999402577556 14.055794086061754 0 0 0
2987 1 6.911812216947622 8.771496911247649 13.051966974807065 0 0 0
3032 1 7.382642968558432 9.733918610088386 13.030421486574106 0 0 0
3425 1 6.4725738939918385 9.171476685006516 13.957700100782146 0 0 0
3429 1 7.532427321463934 9.145547670691606 14.017670485753195 0 0 0
3433 1 8.588227303980048 9.185883833695657 13.954753375662326 0 0 0
2995 1 9.04514793793383 8.918379850393661 13.11597858575448 0 0 0
3004 1 10.77635553104943 9.806098287060417 13.191548101877737 -1 0 0
2999 1 10.259756750625034 8.925390785482334 13.155119383988584 0 0 0
3401 1 -0.197488458910545 9.001269217892748 13.98191414771926 0 0 0
3437 1 9.637575895038164 9.026532850660155 14.021780963029302 0 0 0
3003 1 0.29621279142074497 10.720256282834796 13.016225838271273 0 0 0
3402 1 0.43230124717533225 10.078529510439603 14.015768906956836 0 0 0
3445 1 0.9275121364042351 11.110621988030339 13.932674713134427 0 0 0
3441 1 10.759287216723603 10.907238056018134 13.967786836878668 -1 0 0
3406 1 1.5648779809791027 10.121313155401234 13.906973023929003 0 0 0
3007 1 1.4310849446970224 10.683112771133258 13.067336101325665 0 0 0
3011 1 2.4917848096847055 10.630876245880625 13.058002320603434 0 0 0
3410 1 2.6600518862621114 10.133853071226003 13.899526708593621 0 0 0
3449 1 2.060332344582788 11.078251634470726 13.905570765515096 0 0 0
3453 1 3.0480261405249207 11.018577213483214 14.03072282931112 0 0 0
3414 1 3.596938842981644 10.120411390210704 14.025749666149082 0 0 0
3457 1 4.1112222131901515 11.053579773994919 13.978577559471093 0 0 0
3023 1 5.758508678219162 10.80477194598941 13.19459661442574 0 0 0
3422 1 5.804808182173176 10.000715209098148 14.025560069452354 0 0 0
3418 1 4.751252164013613 10.077014273601982 13.997213760916669 0 0 0
3461 1 5.234173662712581 11.098799902351303 14.135321372631967 0 0 0
3426 1 6.866884088115489 10.169600715379564 14.059883922527042 0 0 0
3465 1 6.3990601919612144 11.186669390892623 13.97354520713131 0 0 0
3469 1 7.497348048821116 11.001388488918973 14.019376487715357 0 0 0
3430 1 8.076647991422753 10.07257509870561 13.99834571327258 0 0 0
3473 1 8.484936499847187 10.967291701053243 14.000350694814442 0 0 0
3434 1 9.148805068553052 10.02265480007673 13.96673984632941 0 0 0
3039 1 10.212662939553123 10.651785372866087 13.076498157895587 0 0 0
3438 1 10.223294412182245 10.022201719206945 13.956842118558562 0 0 0
3477 1 9.6064674417844 10.944976316063425 13.960492243142742 0 0 0
3048 1 0.7772551633292974 11.600479744939863 13.048088473957833 0 0 0
3043 1 0.3658674780039326 12.583119623210452 13.167588565143289 0 0 0
3442 1 0.2103042430507187 12.021048673008567 13.943273232572036 0 0 0
3044 1 10.701774861454421 11.539646488770796 13.10249786883947 -1 0 0
3052 1 1.8627192473376648 11.59428882998509 12.974138032588362 0 0 0
3446 1 1.509457086476141 12.065566748877531 14.080742986001633 0 0 0
3450 1 2.5514463292682037 12.05073243117676 13.91489300623334 0 0 0
3056 1 2.934373693519613 11.662416460279289 13.07149999966335 0 0 0
3055 1 3.5264809380524245 12.635804809634053 13.073975214927092 0 0 0
3454 1 3.5750713760153947 11.929161157934896 14.035296708555537 0 0 0
3059 1 4.637069724150595 12.564060579137758 13.075433164594816 0 0 0
3063 1 5.731769942754081 12.611499391162923 13.172166720074516 0 0 0
3458 1 4.715326751349987 12.012972547956348 14.07530667429982 0 0 0
3462 1 5.772327209227836 12.022485129381613 14.186747790220771 0 0 0
3068 1 6.294792793595304 11.705987870233898 13.123750723967486 0 0 0
3072 1 7.491705154599452 11.699658123072398 13.137136883611849 0 0 0
3466 1 7.016795521325718 12.006857706945986 14.04198889138839 0 0 0
3071 1 8.131172748852205 12.555741395575573 13.096518801087194 0 0 0
3076 1 8.586397072730755 11.564885500714057 13.230066371928642 0 0 0
3470 1 7.977911406392935 11.98285217750926 14.023717588283342 0 0 0
3474 1 9.09477927170279 11.882649199466824 14.13583424405306 0 0 0
3079 1 10.321640952817894 12.484625756428686 13.12555049304877 0 0 0
3478 1 10.166767238585123 11.864961196683865 14.065517552662708 0 0 0
3088 1 0.8183630289086519 13.498304127617248 13.260352341144271 0 0 0
3485 1 0.9411247258722026 12.921807881389856 14.085597462868085 0 0 0
3482 1 0.33723501582150395 13.779652321929607 14.103757154338155 0 0 0
3481 1 10.754346675750725 12.968540501707318 13.909349505407206 -1 0 0
3486 1 1.3864921005946849 13.858293793258493 14.061842592693647 0 0 0
3489 1 2.0427829170547893 12.984699622731336 14.002942435647078 0 0 0
3490 1 2.4065252639411434 13.998434545852088 14.027236654274903 0 0 0
3096 1 3.1209191042494044 13.55697064461503 13.16151141239111 0 0 0
3493 1 3.0399778937996236 12.984951366543731 13.955308147024057 0 0 0
3497 1 4.006268049804946 12.986127098414228 13.878412887485524 0 0 0
3494 1 3.5585011358259906 13.79458841117716 14.021597308144704 0 0 0
3104 1 5.222778676629097 13.680192086096943 13.1018168943083 0 0 0
3501 1 5.208809123295388 12.92580051233694 14.063812121552147 0 0 0
3498 1 4.532462871093923 13.865297293933562 14.083818987666874 0 0 0
3502 1 5.761777434932502 13.787776196741273 14.14349880547562 0 0 0
3112 1 7.366377082023391 13.593386547455388 13.236328353605954 0 0 0
3505 1 6.398580728007656 12.86335295600144 14.182263490178864 0 0 0
3506 1 6.977696918424586 13.766589285744377 14.151064372575267 0 0 0
3509 1 7.531285610291931 13.002483309975977 14.11156198947724 0 0 0
3116 1 8.662182593375558 13.508224601696593 13.092847170152002 0 0 0
3513 1 8.614663582476265 12.918948376812878 14.059918953464148 0 0 0
3510 1 7.982110121708355 13.995251506850218 14.164001640205262 0 0 0
3514 1 9.040945969270489 13.948842354162505 13.933980231612155 0 0 0
3517 1 9.695650866536976 12.913724172953437 14.044242102976616 0 0 0
3518 1 10.181470438797582 13.85156909621419 13.940627795635448 0 0 0
3525 1 0.9946082721832741 14.86811402627437 13.982021053202123 0 0 0
3087 1 1.4632102981499502 14.431662062479536 13.094726809509272 0 0 0
3091 1 2.497272893052335 14.46316309831472 13.073598347177946 0 0 0
3529 1 2.0775503876776056 14.91013544906414 14.049678938072589 0 0 0
3136 1 2.9799641591338033 15.490698389977114 13.086096712954031 0 0 0
3140 1 4.170910552359504 15.582436133382481 13.086898014224829 0 0 0
3095 1 3.618228389007303 14.58981569576913 12.998535330442435 0 0 0
3533 1 3.087700528641744 14.756238649835081 13.926706041687321 0 0 0
3537 1 4.156446025081987 14.844670184121174 13.847946065947644 0 0 0
3099 1 4.729646220907047 14.60281240981155 12.99862004980425 0 0 0
3541 1 5.286624394898756 14.746236137728273 14.0210505323261 0 0 0
3542 1 5.760103872090121 15.658801184387759 14.02221075270282 0 0 0
3107 1 6.854253098701995 14.459536571960077 13.086595927618946 0 0 0
3148 1 6.491981334393145 15.51207870690567 13.109875933338602 0 0 0
3545 1 6.438560135643504 14.5792462709031 14.053066187913775 0 0 0
3549 1 7.4340803681868435 14.794192849368834 14.060458349802975 0 0 0
3115 1 9.019546085508665 14.585090046412281 13.008203764974404 0 0 0
3553 1 8.57607428060496 14.808772486389868 14.079597060112526 0 0 0
3554 1 9.194706121594468 15.675590724620893 13.990421518370152 0 0 0
3124 1 -0.21893034528410474 15.406358753211485 13.132328897107564 0 0 0
3521 1 -0.17464533562916992 14.809193691033759 13.948772525047566 0 0 0
3557 1 9.714043132997208 14.814135568532157 13.853856407708225 0 0 0
3127 1 1.3324650135642582 16.524236517992478 13.214400009939006 0 0 0
3123 1 0.354577935692593 16.502937164087168 13.092559100497065 0 0 0
3522 1 0.4640766238522237 15.82624903103034 14.115650622488532 0 0 0
3565 1 0.8475571567993025 16.757516114496042 14.158516885860903 0 0 0
3526 1 1.4955107715033766 15.93999076797278 14.015862012491858 0 0 0
3530 1 2.614406414079758 15.896729707919587 13.938118833717612 0 0 0
3569 1 1.9969387917922816 16.806948725877774 14.011902566379067 0 0 0
3135 1 3.5879805143715395 16.393873804269575 13.014516370845328 0 0 0
3534 1 3.6880197569817783 15.772901448606891 14.010069039744474 0 0 0
3573 1 3.093100387919504 16.847294872685314 14.021910592003586 0 0 0
3577 1 4.1623184603681915 16.720159017295675 13.920853554042331 0 0 0
3139 1 4.6992017521281575 16.552465926956025 13.02229741976563 0 0 0
3538 1 4.734031367491096 15.778587279049603 13.943999045105112 0 0 0
3581 1 5.251438098171882 16.649836877211456 13.958624027219882 0 0 0
3147 1 6.955398156815287 16.633910429541718 13.098714630453582 0 0 0
3546 1 6.944792838111364 15.817072148125614 13.977935294916332 0 0 0
3585 1 6.477132273369634 16.86252390873128 14.079083370418617 0 0 0
3589 1 7.462185715908511 16.72493205986209 14.018198484918326 0 0 0
3151 1 8.040438767003199 16.50505858837096 13.074347002141439 0 0 0
3550 1 8.074076002352925 15.768243766273784 14.074169503511493 0 0 0
3593 1 8.615602926501072 16.778967206597553 13.949213549207366 0 0 0
3558 1 10.379078546667543 15.878154899415932 13.92572187453186 0 0 0
3561 1 10.742177080561959 16.902559199721427 14.037176343299421 -1 0 0
3597 1 9.741819393636987 16.861180187413584 14.067984114281975 0 0 0
3168 1 0.820921564243259 17.412252457049902 13.088595372510099 0 0 0
3163 1 0.4005096214175755 18.345000358980418 13.157224221943192 0 0 0
3562 1 0.39096287687134235 17.733814430356038 13.930652809997847 0 0 0
3566 1 1.4832549512243578 17.712859641195095 13.977037742174062 0 0 0
3171 1 2.405683666341182 18.315518047863875 13.179741363294607 0 0 0
3209 1 1.9484476191167954 -0.31419159602636815 14.06235010529846 0 0 0
3167 1 1.4064297553758764 18.2728526115973 13.11245408528607 0 0 0
3172 1 1.87012257654162 17.38347899468207 13.135384879403814 0 0 0
3570 1 2.5695387443340425 17.728593392658677 13.981160642653876 0 0 0
3180 1 4.151009783306247 17.373955958633747 13.127968080218295 0 0 0
3175 1 3.4825863933840946 18.365929037397212 13.172628561514635 0 0 0
3176 1 3.0796826282600493 17.38783183549337 13.147359881155534 0 0 0
3574 1 3.6321732194868868 17.831865896272873 14.099820740996494 0 0 0
3184 1 5.3749794284191355 17.3210502462564 13.08995917300866 0 0 0
3221 1 5.303626397194239 18.502587293296767 14.07748504394944 0 -1 0
3179 1 4.666832025819195 18.309082985945043 13.041639057417175 0 0 0
3578 1 4.709590738061303 17.699334638646523 14.046981434215137 0 0 0
3582 1 5.880345811210331 17.67929567722352 14.076202374393151 0 0 0
3229 1 7.55730017304 18.567889043020372 14.06148616165082 0 -1 0
3187 1 6.961337648574837 18.391549383037162 13.182147599259853 0 0 0
3586 1 6.87523594588758 17.761967134767453 14.113323276186993 0 0 0
3195 1 9.150057638645823 18.242846715416263 13.111399914871427 0 0 0
3196 1 8.632112812437757 17.307567745741245 13.107412709900547 0 0 0
3590 1 8.057050937427046 17.67293246547004 14.103542460041156 0 0 0
3594 1 9.2481847010908 17.806095115414273 14.010149263959429 0 0 0
3164 1 10.761220083438527 17.386966346777164 13.011489644020457 -1 0 0
3200 1 9.701347850615498 17.38462113314188 13.173093443141644 0 0 0
3199 1 10.23533394493326 18.2251653061047 13.088094978804122 0 0 0
3598 1 10.318845490691825 17.821939231068153 13.96189528688243 0 0 0
3208 1 0.8118545754632918 0.21597331121259156 14.90885202131229 0 0 0
3602 1 0.43007314037915545 0.528967938782543 15.778046069122729 0 0 0
3605 1 0.9336677141707144 -0.24115583248409703 15.896206564927033 0 0 0
3204 1 -0.1787788132568663 0.3179467967714682 15.009975355851669 0 0 0
3606 1 1.5029372524310338 0.7120279398873364 15.721022582447054 0 0 0
3212 1 2.0423997194676797 0.3070817230111472 14.920470666131367 0 0 0
3610 1 2.4780229919125367 0.7162013116817283 15.79703038648199 0 0 0
3609 1 1.9913537643450043 -0.23351023410183203 15.772267383679461 0 0 0
3216 1 2.997548879042935 0.2636722626531046 14.893496595653556 0 0 0
3220 1 4.1973406195415075 0.32842770864682247 14.932371743884994 0 0 0
3614 1 3.5542366036354776 0.7105890697072867 15.87872507245523 0 0 0
3617 1 4.169833808584539 -0.2457934761153768 15.844359283872587 0 0 0
3613 1 3.205242664593887 -0.20668939797625757 15.687103823387853 0 0 0
3224 1 5.335544281994322 0.3133382427356891 14.850174455519722 0 0 0
3618 1 4.765117256820753 0.6098058590089752 15.828619235087425 0 0 0
3622 1 5.747766178788811 0.5992663495235518 15.932701051011465 0 0 0
3228 1 6.5504465605829 0.2104530596944597 14.958341656001199 0 0 0
3626 1 6.806166376391807 0.592610557289809 15.887570733418341 0 0 0
3232 1 7.5577279811100775 0.2509270977940402 14.922791796171449 0 0 0
3629 1 7.4603369332480876 -0.35018842654059884 15.853024305736119 0 0 0
3625 1 6.409654111546866 -0.32989571611278024 15.924077813263247 0 0 0
3236 1 8.638818575491044 0.15592555581942003 14.96737662739471 0 0 0
3630 1 8.146880102552512 0.5089067094569095 15.7500674546836 0 0 0
3634 1 9.179489075145096 0.5019104876396686 15.867996274431084 0 0 0
3601 1 -0.0986329104706178 18.623679308135085 15.752017322178988 0 -1 0
3240 1 9.702547457749628 0.380467439790103 14.9388791680587 0 0 0
3638 1 10.405783270471726 0.6597391074296328 15.822529271599619 0 0 0
3637 1 9.813893246506101 -0.37468202420126984 15.791454721821362 0 0 0
3203 1 0.26505008205842745 1.2267373523815248 14.952681610515928 0 0 0
3248 1 0.8989907409129536 2.137825051761112 14.870220710806208 0 0 0
3645 1 0.8783690385242846 1.4962911374411032 15.736372693869074 0 0 0
3642 1 0.5431637091052286 2.498152136244444 15.721181271736084 0 0 0
3207 1 1.3923618993085318 1.2030009004536095 14.77128366725552 0 0 0
3211 1 2.441733708046775 1.25570468192391 14.86095020378758 0 0 0
3252 1 1.8875184027118461 2.2149075104131786 14.763425359629544 0 0 0
3649 1 1.9819153004907104 1.5590682313439799 15.740179201748811 0 0 0
3646 1 1.544815975782845 2.4351596692077764 15.960766307340569 0 0 0
3650 1 2.5131156702416586 2.5312502132929855 15.891624369889337 0 0 0
3256 1 2.948477692830239 2.1303121101970475 14.903290799157892 0 0 0
3215 1 3.5063841906003175 1.2757307618521756 14.91784618510442 0 0 0
3653 1 3.0614569596040955 1.629455739861144 15.8083930107664 0 0 0
3260 1 4.0470526664107975 2.092205746399954 15.017299719335696 0 0 0
3657 1 4.116309209640693 1.6446725920394933 15.84248505112373 0 0 0
3654 1 3.631360955710532 2.499376940625584 15.893943149990909 0 0 0
3223 1 5.846070581475324 1.2131520270668277 14.953180240815287 0 0 0
3219 1 4.746788439408031 1.195672890480641 15.00476490254652 0 0 0
3264 1 5.191944161278545 2.1861397272631753 14.946152617947105 0 0 0
3661 1 5.184750868254395 1.5784070451796002 15.840935808384147 0 0 0
3658 1 4.8352401621856 2.6040878365113147 15.761219679009743 0 0 0
3662 1 5.856284865529295 2.4580552537017897 15.821539932464818 0 0 0
3227 1 7.028564273607523 1.2749532255007754 14.83123504970861 0 0 0
3268 1 6.4415117092972345 2.1123284549578103 14.964868891540656 0 0 0
3665 1 6.3142548520288315 1.531047718743467 15.804921086781357 0 0 0
3669 1 7.5398231843688475 1.4388716137049515 15.770603095080515 0 0 0
3272 1 7.571669313898793 2.2671511811229097 15.035629700631862 0 0 0
3666 1 6.954679578472788 2.4452160457232037 15.821479187099262 0 0 0
3231 1 8.188780914432048 1.2438379540894744 14.906172889220064 0 0 0
3276 1 8.56849575125133 2.1436300243000943 14.969442542109514 0 0 0
3673 1 8.690899883304823 1.496533958366998 15.911396921484206 0 0 0
3674 1 9.117360924804892 2.468443592994072 15.798732069952615 0 0 0
3670 1 8.132864095059823 2.51560584015693 15.969413594330065 0 0 0
3244 1 -0.15057266036813846 2.23348488858646 14.849523255030402 0 0 0
3641 1 10.76494608090744 1.6956887659952748 15.806885935296096 -1 0 0
3235 1 9.147841464822083 1.2376443948929148 15.028869904597878 0 0 0
3239 1 10.272557250375645 1.1984703654103894 14.892699345862026 0 0 0
3280 1 9.814469775737429 2.154396454668054 15.05586025163245 0 0 0
3677 1 9.730656816201087 1.5858803024173496 15.781542957069297 0 0 0
3678 1 10.261701197244545 2.537881257339125 15.909424130588691 0 0 0
3243 1 0.40950749990469437 3.069723606973524 14.961419825395495 0 0 0
3685 1 0.961730945992604 3.44817891521523 15.943426845089524 0 0 0
3247 1 1.3798989098117682 3.0854053646411037 14.903534646462106 0 0 0
3251 1 2.7077999212602166 3.139410897355084 14.982950200404245 0 0 0
3689 1 2.0176149354683806 3.406348564672268 15.788749894729042 0 0 0
3693 1 3.191710865166592 3.549413795822234 15.905999383671789 0 0 0
3255 1 3.6678954599922564 3.07046460460777 14.956348127970957 0 0 0
3697 1 4.238794680781739 3.3870785765858527 15.622142501037406 0 0 0
3259 1 4.866484373452324 3.14747171234777 14.880570709562285 0 0 0
3263 1 5.859286106418215 3.090444818627077 14.903248168887373 0 0 0
3701 1 5.297476427415196 3.473338347670285 15.804787982476947 0 0 0
3304 1 5.412251948461702 4.043396157807354 14.914971001349468 0 0 0
3267 1 6.938829361848979 3.046317975880319 14.950618896834706 0 0 0
3705 1 6.394216637737402 3.3206481451439713 15.776223500696714 0 0 0
3709 1 7.457668589398281 3.4607376248754784 15.93051065727236 0 0 0
3312 1 7.591615602120282 4.06533104534662 14.902109658522619 0 0 0
3271 1 8.178715698577207 3.109090150741858 15.079486067167775 0 0 0
3713 1 8.637993072683713 3.5216405828608277 15.92292137206764 0 0 0
3275 1 9.252207040061865 3.0567517427967728 15.009392069068243 0 0 0
3681 1 -0.13269934307368017 3.4444023187725907 15.815448653489971 0 0 0
3279 1 10.342683552178269 3.124671581777603 14.969465237915264 0 0 0
3717 1 9.721085559727722 3.41028128142243 15.889732150877643 0 0 0
3288 1 0.9302340270633243 3.9876936742004405 14.920200896178752 0 0 0
3283 1 0.35245207104971865 4.89642047052597 14.90778514343047 0 0 0
3682 1 0.370180418251262 4.361829907286978 15.846986589091506 0 0 0
3725 1 0.8787637206803933 5.440597516007325 15.821213515341265 0 0 0
3721 1 10.763437883387297 5.341787891797553 15.843521673069587 -1 0 0
3292 1 1.9623864475075394 4.05168814573198 14.929265738369056 0 0 0
3686 1 1.3410980380683095 4.454163600284669 15.823532424688095 0 0 0
3287 1 1.323776837697219 4.995495591772423 14.854298124955609 0 0 0
3291 1 2.5781899432245985 5.072872055373738 14.87644613692213 0 0 0
3690 1 2.464236066123797 4.374332530549507 15.896592675836628 0 0 0
3729 1 1.947626958905233 5.320800409539229 15.631039649259755 0 0 0
3296 1 3.093795429559606 4.072103474963266 15.033480893587173 0 0 0
3300 1 4.327949611577839 4.123641268527528 14.919128753393393 0 0 0
3295 1 3.7372440380760916 5.000335407080529 14.846439903581139 0 0 0
3694 1 3.687238221067608 4.369089992697117 15.939474484667455 0 0 0
3737 1 4.178988742390137 5.214900062145171 15.781249723452616 0 0 0
3733 1 3.0596491484003363 5.158138029952377 15.714133698730025 0 0 0
3299 1 4.85991538303315 4.971673353613199 14.871096892366003 0 0 0
3303 1 5.94763835791788 5.028336521946835 14.85078778184767 0 0 0
3698 1 4.876310534573824 4.3583897939736564 15.761143998997644 0 0 0
3702 1 5.994057405872852 4.472295719384264 15.685069506865199 0 0 0
3741 1 5.2881984943099845 5.348880645095947 15.74061182891923 0 0 0
3308 1 6.4659853065961785 3.9346947270215837 14.908656705018277 0 0 0
3307 1 7.077926564637128 4.975372503603451 14.878293793287336 0 0 0
3706 1 7.016934390568255 4.42087185756786 15.718055790656946 0 0 0
3749 1 7.5888660072405205 5.3190763475124205 15.77225000268025 0 0 0
3745 1 6.290380765526004 5.390424003369723 15.831297610522379 0 0 0
3316 1 8.662033790269199 4.116419964139568 14.960753903384708 0 0 0
3311 1 8.097768819089112 5.08948102645937 14.957149063315342 0 0 0
3710 1 8.188691034504302 4.4521598791922035 15.833801689321925 0 0 0
3753 1 8.64536208841539 5.373458807557399 15.77056667150521 0 0 0
3714 1 9.262172857134296 4.4964891157997116 15.820076062380446 0 0 0
3320 1 9.82506094710055 4.19787487621004 14.917383063098823 0 0 0
3284 1 -0.11637207793597791 4.012322063053896 15.032380106815435 0 0 0
3315 1 9.129874896986472 4.994627005011851 14.940080799374778 0 0 0
3319 1 10.37927499159041 4.998303554210482 14.908618391874695 0 0 0
3718 1 10.293431159153407 4.28676453068628 15.837309639651243 0 0 0
3757 1 9.704955453385576 5.401829766129932 15.587065110314686 0 0 0
3328 1 0.7518719980113273 5.863611109037064 14.922284303799847 0 0 0
3722 1 0.28014033184598 6.282919450246512 15.87874284343326 0 0 0
3726 1 1.460881609912381 6.28866700968383 15.727443862545188 0 0 0
3332 1 2.0333292728942025 5.968943846342679 14.940406113092122 0 0 0
3730 1 2.531008186334295 6.286329984613823 15.818529574205725 0 0 0
3331 1 2.589743827846357 6.924161946457631 14.907774723780042 0 0 0
3336 1 3.214262073724488 6.025531670902897 14.968042039047605 0 0 0
3340 1 4.3565846983091365 5.871932410153106 14.880788359756655 0 0 0
3734 1 3.699727803078995 6.449224323775156 15.753331996478886 0 0 0
3335 1 3.6842743814524073 6.94108814360723 14.84893272853887 0 0 0
3738 1 4.628353057746307 6.219574702190815 15.872937489571763 0 0 0
3344 1 5.36938418617964 6.005821658194186 14.884438157179249 0 0 0
3742 1 5.877779051497603 6.374076655557129 15.768927946705324 0 0 0
3348 1 6.5260865092518365 5.879686618822245 14.892702594858003 0 0 0
3746 1 7.042267354260724 6.3368429143064935 15.880077272958891 0 0 0
3352 1 7.6260871018620335 5.9797633207518475 14.954537184965872 0 0 0
3347 1 6.953577726718799 6.793786725769211 15.024434053006393 0 0 0
3356 1 8.652839539996862 5.9418265354179916 14.884346885000099 0 0 0
3750 1 8.053759957171078 6.288539078700299 15.744936137119046 0 0 0
3351 1 8.091621228982568 6.919282829554644 14.853356452247473 0 0 0
3754 1 9.208382448041338 6.422367575825999 15.744887670252846 0 0 0
3355 1 9.180119984415402 6.93539286963917 14.788711698332884 0 0 0
3324 1 10.735904390558503 6.098105653668712 14.797437300044837 -1 0 0
3360 1 9.722225254711262 5.951607309336277 14.826562849752309 0 0 0
3758 1 10.265217031179798 6.366088548792389 15.776861573798156 0 0 0
3323 1 0.34373349794882824 6.907286200692097 14.883663333699673 0 0 0
3327 1 1.307467394480135 6.760296110507162 14.756508150834167 0 0 0
3368 1 0.9664229774223527 7.860499512138938 14.940232388149717 0 0 0
3762 1 0.5198020738422748 8.208381663722385 15.79123900000098 0 0 0
3765 1 0.9554433026440747 7.1918569608524034 15.733334204548546 0 0 0
3766 1 1.5364794808290576 8.245576844559181 15.805265018989923 0 0 0
3372 1 2.098272076389769 7.80941071629902 14.918020043638563 0 0 0
3769 1 1.9867394173693764 7.376160597515775 15.794907694501033 0 0 0
3770 1 2.6095557085581085 8.376279271004721 15.819075305468365 0 0 0
3773 1 3.0395217748047836 7.436509910769832 15.729886679665393 0 0 0
3376 1 3.1125036653565186 7.812324913992567 14.76712316879225 0 0 0
3380 1 4.206642914557613 7.867150937898039 14.87792102753263 0 0 0
3774 1 3.6415890874436534 8.218718103228376 15.733604142870282 0 0 0
3777 1 4.1791477883407735 7.308540286431831 15.770290250969849 0 0 0
3339 1 4.732399212458417 6.882435790114288 14.94122110624966 0 0 0
3343 1 5.868689922337715 6.9907011451901875 14.799595787295189 0 0 0
3778 1 4.6697168842727 8.31426063202319 15.843963883881697 0 0 0
3384 1 5.267274683381944 7.886651521805421 14.897574415621515 0 0 0
3781 1 5.26138715334736 7.294896828506916 15.94945562292226 0 0 0
3782 1 5.778268177630341 8.198153938731817 15.795590960007326 0 0 0
3388 1 6.438588407272692 7.823130335850964 15.002851628101022 0 0 0
3785 1 6.418695043587257 7.265389780215608 15.822631258830766 0 0 0
3786 1 6.859348667094337 8.346869343997495 15.89202178849534 0 0 0
3789 1 7.540572894102982 7.152017740645388 15.7464813230818 0 0 0
3392 1 7.48700272556634 7.825568634648409 14.85302726844586 0 0 0
3396 1 8.615419590589546 7.861152924326662 14.89600922281675 0 0 0
3790 1 7.938611889140625 8.24678551743908 15.739800947915823 0 0 0
3793 1 8.628749711094382 7.250535579788262 15.809811387770422 0 0 0
3794 1 9.145640134860844 8.20120043233884 15.680874733381652 0 0 0
3359 1 10.291254433557047 7.072864706186741 14.777785368849075 0 0 0
3761 1 -0.1962872107343544 7.315670470868682 15.725104121188958 0 0 0
3364 1 -0.21067246661812644 7.893552286835444 14.750395799056127 0 0 0
3400 1 9.632314172511908 7.830817142763337 14.835865272695022 0 0 0
3797 1 9.77419360317494 7.234130183224631 15.60945808677627 0 0 0
3798 1 10.207596484551406 8.326716384537619 15.672289730959426 0 0 0
3363 1 0.37621245745416776 8.876528642272287 14.874971886176318 0 0 0
3805 1 0.9365621269675564 9.16361255941631 15.895276603131895 0 0 0
3408 1 0.822166532749588 9.683289517617045 14.964288854772601 0 0 0
3367 1 1.3978834276272094 8.81284345045584 15.001627112242844 0 0 0
3371 1 2.487716231299554 8.90841021532287 14.979224269544238 0 0 0
3809 1 1.9720564317172773 9.18256104973436 15.820992016533372 0 0 0
3412 1 1.855762539588111 9.826074544746394 14.958263459499777 0 0 0
3813 1 3.1752447164090056 9.258467352322183 15.658736269998672 0 0 0
3375 1 3.6139758682720724 8.827834153291786 14.805934804350532 0 0 0
3817 1 4.308372726710366 9.184577858413366 15.768717965772035 0 0 0
3420 1 4.155426088815782 9.764131826968704 14.929700976677175 0 0 0
3416 1 3.1378998720302667 9.818867123532277 14.907875416292367 0 0 0
3379 1 4.76324086739378 8.754917305044858 14.810996977831424 0 0 0
3821 1 5.310893864938525 9.150353588235188 15.63054584848141 0 0 0
3383 1 6.010097603796353 8.879601184392687 14.8744771942782 0 0 0
3424 1 5.2622870177998475 9.788251303260997 14.804952319005075 0 0 0
3387 1 6.953467979765561 8.847475572040105 14.940879489126138 0 0 0
3825 1 6.339085761448952 9.285618258706064 15.846640798525735 0 0 0
3428 1 6.436008200113211 9.842188589671254 14.925261121292708 0 0 0
3829 1 7.414158199935588 9.216600948749473 15.812461058840432 0 0 0
3391 1 8.020057571942885 8.854214986289614 14.869975683039373 0 0 0
3833 1 8.523377174234277 9.101530676597536 15.757950578205476 0 0 0
3395 1 9.031260251966653 8.848298623849862 14.834383343948538 0 0 0
3436 1 8.55777768154784 9.858883336877321 14.873841490535739 0 0 0
3801 1 10.781756503471005 9.244719040725876 15.849566269502487 -1 0 0
3404 1 10.70213689807235 9.865339558982354 14.830387745331642 -1 0 0
3399 1 10.291387699574507 8.907332829227517 14.841549884245367 0 0 0
3837 1 9.55134361342175 9.16938974779134 15.594737016657113 0 0 0
3440 1 9.678000554898716 9.87689260042448 14.828378201691946 0 0 0
3403 1 0.2780216077597162 10.76639844316132 14.888639214223225 0 0 0
3802 1 0.4922674080577064 10.218987747380588 15.842859965362488 0 0 0
3845 1 1.0305487931861659 11.082601641907601 15.848552962015662 0 0 0
3407 1 1.3566929119808855 10.662104448716093 14.863738751482684 0 0 0
3806 1 1.4458661805482524 10.024464692129024 15.814761961148966 0 0 0
3810 1 2.5717516268163707 10.054765968822242 15.724190518906687 0 0 0
3411 1 2.5542879794078654 10.723104243708203 14.85149023799926 0 0 0
3849 1 1.9664516668701042 11.015217300511821 15.82418521288889 0 0 0
3853 1 3.1183163905844435 11.018429466002074 15.724682689083485 0 0 0
3415 1 3.741456221726982 10.703004785014093 14.851548643571952 0 0 0
3814 1 3.763677442393594 10.150971541239908 15.829721403985067 0 0 0
3857 1 4.266804800674651 11.053478264937581 15.935597488297711 0 0 0
3419 1 4.873306938008707 10.688522052021648 15.14081546441923 0 0 0
3423 1 5.945310780792724 10.755776632223592 14.930805776130684 0 0 0
3818 1 4.869271035527395 10.082513922708992 15.961080359914751 0 0 0
3861 1 5.331404959452522 11.042155989566181 15.921457341898913 0 0 0
3822 1 5.995076025608831 10.213013504411702 15.824377290455141 0 0 0
3432 1 7.467595883624225 9.807198777281716 14.824347552796318 0 0 0
3427 1 6.921337764716619 10.798496444974294 14.868851221112763 0 0 0
3826 1 7.013439007436828 10.252782528960642 15.775352178890467 0 0 0
3865 1 6.413994213436945 11.231318291510911 15.73473247601133 0 0 0
3869 1 7.493441617189515 11.132319223528459 15.84640818220346 0 0 0
3431 1 8.026188663701095 10.81550783330254 15.032905399996245 0 0 0
3830 1 8.012119529070933 10.068587956028306 15.797827302994216 0 0 0
3873 1 8.63372433836362 11.152525055245283 15.731548548501513 0 0 0
3435 1 9.082560184065507 10.750633626629794 14.988735477610835 0 0 0
3834 1 9.10451087428849 10.11477016795591 15.889740509960466 0 0 0
3841 1 10.739277552153752 11.028551210266738 15.765523071991888 -1 0 0
3439 1 10.133744440666284 10.826893674693528 14.821960601344632 0 0 0
3838 1 10.148178575223184 10.039478891782363 15.76938397967348 0 0 0
3877 1 9.606809899366887 11.128193980877297 15.811437623885217 0 0 0
3448 1 1.016396315461526 11.678145360485823 14.883075405185682 0 0 0
3842 1 0.3827844525742522 11.806106514538387 15.702690470021112 0 0 0
3443 1 0.3208409233158327 12.537219010412992 14.772437314394919 0 0 0
3846 1 1.4620451926138107 12.035273545325042 15.703509985652522 0 0 0
3447 1 1.4399468766830286 12.67706845014026 14.918367009157613 0 0 0
3452 1 2.012950767522387 11.610829393563826 14.891840024550996 0 0 0
3850 1 2.6519263594918008 11.970068980635192 15.697177705869061 0 0 0
3451 1 2.467350054949734 12.637711920399834 14.90704320110525 0 0 0
3456 1 3.1293488694035685 11.591134997738157 14.91524350073948 0 0 0
3460 1 4.218873163411366 11.654959693287045 14.92722875700006 0 0 0
3854 1 3.664958598717098 11.969460499178508 15.80143646892663 0 0 0
3455 1 3.579622783650835 12.60389391570165 14.834919134898016 0 0 0
3464 1 5.294395697207017 11.70814119598033 14.976775191958703 0 0 0
3858 1 4.813500804737917 11.866537322603453 15.901388513345863 0 0 0
3862 1 5.865537165013956 12.06476637199341 15.980199797920017 0 0 0
3459 1 4.640730652737408 12.680116275361717 14.994358678379049 0 0 0
3463 1 5.891234100828651 12.649226141508334 15.007476190525269 0 0 0
3901 1 5.251952486945922 12.975539642599037 15.80360969599503 0 0 0
3468 1 6.4013084010116605 11.726176864921193 14.87848915558849 0 0 0
3866 1 6.966698944919286 12.143760214055456 15.864789646962032 0 0 0
3467 1 7.073277228143467 12.616055110310478 14.93383946769224 0 0 0
3472 1 7.401066050475793 11.658095946958712 14.90823842569432 0 0 0
3476 1 8.465762703174374 11.808272917070864 14.903031292662867 0 0 0
3870 1 8.02353405330593 12.04272526534759 15.78774524566346 0 0 0
3471 1 8.076599225471206 12.785875029564979 14.930748249137842 0 0 0
3874 1 9.07500509743019 12.00906269745892 15.791852138884297 0 0 0
3444 1 10.781807579960475 11.724230606777635 14.953228820831583 -1 0 0
3475 1 9.190037995568574 12.746942895427656 14.939251752355666 0 0 0
3480 1 9.576607685960894 11.68115570132637 14.966208556468512 0 0 0
3878 1 10.329638360462354 12.083962528679352 15.830418086889088 0 0 0
3479 1 10.251976846858003 12.560966347184404 14.87608843696177 0 0 0
3885 1 1.020903351297957 12.962179330132534 15.95501482582848 0 0 0
3488 1 0.942322150595712 13.593697538475894 14.965194927603907 0 0 0
3882 1 0.2785195475634264 13.940552863730925 15.630370442000466 0 0 0
3484 1 10.738081230429792 13.418957885357019 14.86822744184145 -1 0 0
3886 1 1.4251190732832386 13.865282346792467 15.92166345637885 0 0 0
3889 1 2.0716429259587272 12.855285971251305 15.773948805121313 0 0 0
3492 1 1.9332368793149408 13.64373998019712 15.0169215652601 0 0 0
3890 1 2.7156458197211033 13.853891324003682 15.822775066564 0 0 0
3893 1 3.062202380194088 12.922481918091178 15.79195982999577 0 0 0
3496 1 2.9988733736042583 13.544151857743255 14.902594044009588 0 0 0
3897 1 4.105196995781875 12.988392665858344 15.835979398639305 0 0 0
3500 1 4.098912869243884 13.541756708364893 14.862467416111999 0 0 0
3894 1 3.6976557109770023 13.888444361844098 15.90187055455368 0 0 0
3898 1 4.69499455959847 13.967556845720805 15.948316102930379 0 0 0
3504 1 5.151819619356744 13.59670143968608 14.931391364088999 0 0 0
3902 1 5.836484837132201 14.053100207167093 15.92443179958356 0 0 0
3909 1 7.517639355956432 13.051041295261538 15.828956653374425 0 0 0
3905 1 6.331743607516237 13.002202392762685 15.871073570822217 0 0 0
3508 1 6.359350889271184 13.607953350147618 14.983012502516432 0 0 0
3906 1 6.92662945995516 13.974583468623074 15.886656591459959 0 0 0
3512 1 7.360821786794635 13.631270754562896 15.03697515542322 0 0 0
3913 1 8.658752075272467 13.001670977039339 15.814140146239763 0 0 0
3516 1 8.587658369639115 13.619709988295003 14.885031943234187 0 0 0
3910 1 8.106987199439988 13.911016118446282 15.81740484525295 0 0 0
3914 1 9.111920889456233 13.893558441339694 15.850803933851866 0 0 0
3881 1 -0.08642088568616865 12.923432042183526 15.768226949782074 0 0 0
3917 1 9.656964720589887 12.851274033499083 15.8640746201171 0 0 0
3520 1 9.695186019552526 13.652166350876882 14.975740218465942 0 0 0
3918 1 10.282727438623727 13.765344651847753 15.909312284530545 0 0 0
3483 1 0.4475723316678869 14.644839396598124 14.889235180575357 0 0 0
3528 1 0.9838702133017905 15.626820049099091 14.9487884453033 0 0 0
3925 1 0.9815137158610936 14.866583020611625 15.838697497634444 0 0 0
3524 1 -0.1932311079855796 15.460119525247569 14.943500198208495 0 0 0
3922 1 0.3263069775117581 15.812368400018133 15.818061143944293 0 0 0
3487 1 1.4323020687653336 14.521768611913638 14.87311988449077 0 0 0
3491 1 2.509944337631798 14.420126937971757 15.008498938310648 0 0 0
3929 1 2.03005149549825 14.808053657521281 15.872509255868435 0 0 0
3532 1 1.9958250845701948 15.462553275366238 14.894945509260127 0 0 0
3930 1 2.459437028273354 15.881558494171792 15.722727754014285 0 0 0
3933 1 3.0114682982059087 14.95965983855824 15.813739520463718 0 0 0
3495 1 3.478123916351426 14.489676255684634 14.852230068618905 0 0 0
3540 1 4.109971576725106 15.45745773271164 14.807798728964189 0 0 0
3937 1 4.098841191361465 14.910338679664251 15.670554141413236 0 0 0
3536 1 3.0210961206290805 15.435109140495689 14.815915645658052 0 0 0
3499 1 4.674235057147471 14.614988160357461 14.93827861732335 0 0 0
3503 1 5.8178737546872 14.612118707377682 14.89549188719075 0 0 0
3941 1 5.133259736487481 14.900252222370598 15.929984289628239 0 0 0
3544 1 5.221908239580278 15.44950576518398 14.876833600992477 0 0 0
3507 1 6.91191238812052 14.592543226419261 15.027366189908902 0 0 0
3548 1 6.4303946565257135 15.617923797582186 14.7965686795854 0 0 0
3945 1 6.344277147959092 14.946195410569397 15.820697866365299 0 0 0
3949 1 7.557590072702264 14.964105437605108 15.81723511981013 0 0 0
3552 1 7.419235397416107 15.505059232870039 14.909988559726148 0 0 0
3511 1 8.025825139937307 14.631711880318521 15.001895317790215 0 0 0
3556 1 8.631951586425394 15.47066075064626 14.930558657035759 0 0 0
3953 1 8.574692830923283 15.00248693686048 15.848505610009207 0 0 0
3515 1 9.151986585694157 14.541224992800243 14.873136779843813 0 0 0
3921 1 -0.1921891647530724 14.865609901824442 15.731151113535324 0 0 0
3519 1 10.34578186298899 14.39385856440683 14.805856593322753 0 0 0
3560 1 9.768397381021469 15.329674975701252 14.781615999228483 0 0 0
3957 1 9.809436558828764 14.72356796756446 15.779568889442048 0 0 0
3523 1 0.2883393906538543 16.449484246378965 14.969756686433538 0 0 0
3965 1 0.8327669696923976 16.76935765767371 15.742239649079723 0 0 0
3527 1 1.5426124461310884 16.426988636856365 14.907939374588642 0 0 0
3961 1 10.665620737595798 16.769935683453248 15.84100221759895 -1 0 0
3926 1 1.4631482808030427 15.882940693261258 15.848107312865887 0 0 0
3531 1 2.492951228399165 16.499282606087096 14.764388394437663 0 0 0
3969 1 1.983112111922086 16.82223449859226 15.678650362075208 0 0 0
3934 1 3.5752356770763933 15.8304750839232 15.722468547549687 0 0 0
3973 1 3.0615741566615005 16.82008817226852 15.760611801770859 0 0 0
3535 1 3.5845087541193696 16.49719246152739 14.853804599278114 0 0 0
3977 1 4.058610608719042 16.874466688419616 15.834550167331505 0 0 0
3938 1 4.552837982161852 15.967026015275856 15.704474766297066 0 0 0
3942 1 5.797500283351299 15.872233593333888 15.74191583104359 0 0 0
3539 1 4.684555789867299 16.504166329249088 14.915643993635303 0 0 0
3981 1 5.14914401864553 16.883574183540183 15.713972416587593 0 0 0
3543 1 5.829348349018374 16.493764636812077 14.911155445683487 0 0 0
3946 1 6.864834840953954 15.911237887927353 15.765442342695211 0 0 0
3547 1 6.996369624309889 16.477223855468768 14.879473463717623 0 0 0
3985 1 6.397605616301193 16.866953237022535 15.816337429270787 0 0 0
3989 1 7.445112898660762 16.79934349862196 15.860078082896086 0 0 0
3950 1 7.9724048974963955 15.912811485371442 15.870124202515195 0 0 0
3551 1 8.130169169753668 16.408524283272264 14.938844442154275 0 0 0
3993 1 8.563503046433507 16.775660627079183 15.868428693818762 0 0 0
3954 1 9.056233335468 15.884696661553683 15.836034170409329 0 0 0
3555 1 9.238888739298044 16.32643428462468 14.867987878885192 0 0 0
3958 1 10.105393600819525 15.699212429168153 15.769314557215859 0 0 0
3559 1 10.368302284993462 16.357706714670517 14.93935809464156 0 0 0
3997 1 9.677761720958294 16.77211180674455 15.69533294927332 0 0 0
3563 1 0.4227675122699388 18.373524513910375 14.95275436984312 0 0 0
3568 1 0.754527831137684 17.444130857876264 14.86955577601607 0 0 0
3962 1 0.3276607569409574 17.617821781059558 15.846679399600548 0 0 0
3966 1 1.2976244597385242 17.845909369375274 15.819638543020533 0 0 0
3567 1 1.3925702783370415 18.307518392514403 14.938673610944637 0 0 0
3572 1 1.9317944173144976 17.50588759802717 14.864892414196621 0 0 0
3571 1 2.481363809505314 18.37301695947609 14.834137323658211 0 0 0
3970 1 2.5475357508704075 17.743548406759576 15.745287894101951 0 0 0
3576 1 3.0172039368545653 17.48059150143528 14.883176002516787 0 0 0
3575 1 3.6109527358429045 18.369362886992413 14.97479505911433 0 0 0
3580 1 4.138259637092484 17.479785579115 14.966564424172143 0 0 0
3974 1 3.593773076849328 17.846547822978966 15.838613085859405 0 0 0
3621 1 5.241753340526921 -0.30025562578829745 15.865768270657972 0 0 0
3579 1 4.782783359031688 18.50484912283041 14.931864465161828 0 0 0
3583 1 5.822674106321128 18.443431726551633 15.005647574571965 0 0 0
3584 1 5.322906068153199 17.56206629040693 14.973270042827671 0 0 0
3978 1 4.721495356143815 17.91037233494352 15.810984171197367 0 0 0
3982 1 5.813570954074246 17.80383459988634 15.906894379123576 0 0 0
3587 1 6.984511013580018 18.30963703554865 15.009352041631882 0 0 0
3588 1 6.3135406062096475 17.419753169268375 15.000900436176458 0 0 0
3986 1 6.962213381106552 17.797919758902854 15.92214224097433 0 0 0
3592 1 7.524539036272962 17.413598996042303 15.049227751197256 0 0 0
3633 1 8.531908134281895 18.551023465371596 15.808542850953566 0 -1 0
3596 1 8.641730255964298 17.336916977693694 15.040178587758655 0 0 0
3591 1 8.178095050248583 18.247386037217932 14.892100165242379 0 0 0
3990 1 7.978571388554379 17.621553584853032 16.0151119447059 0 0 0
3595 1 9.25512501991009 18.33644990141929 14.949369596234302 0 0 0
3994 1 9.267470045384997 17.708675739197833 15.861589528435813 0 0 0
3564 1 -0.206098143659748 17.42808915207998 14.889059995111387 0 0 0
3600 1 9.770842253758545 17.344416856102143 14.87128428894648 0 0 0
3599 1 10.224646372088731 18.375119233637964 14.84977051398011 0 0 0
3998 1 10.35278631772401 17.733456871067126 15.754663202528947 0 0 0
2 1 0.2808064729089885 0.58928409598343 17.572347241839523 0 0 -1
3608 1 0.8904034148412645 0.3974696947572173 16.690219489322644 0 0 0
3612 1 2.042873142139565 0.2786634928024727 16.76507611721663 0 0 0
14 1 3.725083562541747 0.6920800296348069 -0.29932021105787543 0 0 0
3616 1 3.130655826371279 0.32043036637686995 16.762207556582815 0 0 0
3620 1 4.2206405007830945 0.3325693338767791 16.771499484675765 0 0 0
22 1 5.880780656732212 0.4763050436400402 -0.27856225358228537 0 0 0
3624 1 5.228248080528749 0.4288181955010968 16.844611399694756 0 0 0
3619 1 4.774161541906192 1.2498003569154403 16.75305175116793 0 0 0
3628 1 6.3467592289921635 0.22832049592162784 16.700342337437277 0 0 0
3632 1 7.409420898685507 0.2838238442022851 16.77427421514463 0 0 0
30 1 8.163556296590048 0.5826079336128354 17.554292760283666 0 0 -1
33 1 8.622385028472785 -0.35436653079239394 17.54261900076944 0 0 -1
34 1 9.259405147360155 0.557707746098599 17.583918379122245 0 0 -1
3636 1 8.688299363683146 0.3067566803251619 16.71580824777569 0 0 0
3604 1 -0.16240758010258194 0.15488421798779994 16.687763297020958 0 0 0
3640 1 9.792593453667141 0.3935167987931675 16.698213856083697 0 0 0
45 1 0.8436376382144564 1.560331628784641 17.555463396907335 0 0 -1
3603 1 0.21848098302225266 1.1569911010538403 16.64801026761095 0 0 0
3648 1 0.9441960371728946 2.2099733180159116 16.685083066074043 0 0 0
46 1 1.3887356496254186 2.4443469961321718 17.57757842641749 0 0 -1
3611 1 2.5907038438973427 1.2593431398849637 16.83199706583425 0 0 0
3607 1 1.4389248303666142 1.3411327775228465 16.692970547503528 0 0 0
3652 1 2.1087309639461935 2.2058516071474106 16.79772389676595 0 0 0
3615 1 3.61992014426861 1.3448253073987666 16.79849832395515 0 0 0
3656 1 3.098675449684249 2.136416951681173 16.786248934192187 0 0 0
3660 1 4.306504162053864 2.206514641886366 16.63115759740672 0 0 0
3623 1 5.8464707326551695 1.2549124328985646 16.828451620095116 0 0 0
3664 1 5.382820408370373 2.1681215424826172 16.71011646494855 0 0 0
65 1 6.322613811978509 1.6533011270166185 17.56883770327503 0 0 -1
3627 1 6.938703392024615 1.2815148490164499 16.68683779769627 0 0 0
3668 1 6.4263595628198145 2.163759338691275 16.660707494879226 0 0 0
3672 1 7.517969964363103 2.0953237424703746 16.76438168334886 0 0 0
70 1 7.940043464175177 2.5512882047050884 -0.23976056438827387 0 0 0
3635 1 9.157717737147191 1.2458199975112203 16.793991565372423 0 0 0
3631 1 8.01063970498122 1.197461255114326 16.647323709204223 0 0 0
3676 1 8.530441224668149 2.070370542236966 16.798833304722088 0 0 0
3644 1 10.76721326159975 2.2709262147936813 16.71114813172788 -1 0 0
3639 1 10.180731996767317 1.3444566275062844 16.63635613168988 0 0 0
3680 1 9.6752917480963 2.2970540567253837 16.68785175617316 0 0 0
3643 1 0.3024361666517198 3.1535822802374214 16.708372195843296 0 0 0
81 1 -0.15783103772010493 3.55071929815355 17.598698906487027 0 0 -1
50 1 2.514304264188543 2.558719213087772 -0.2929370949991115 0 0 0
3647 1 1.4292778055504007 3.1337180843650754 16.838489102689593 0 0 0
3651 1 2.5511869965991476 3.231983423817274 16.72763987877463 0 0 0
97 1 4.23028031577391 3.5079102588369975 17.56780982379464 0 0 -1
3655 1 3.6577496796420528 3.059832430920433 16.730928719057296 0 0 0
58 1 4.853532916080801 2.5611226153340647 17.602720002804332 0 0 -1
3659 1 4.7502455739112195 3.083191044448368 16.699758042233512 0 0 0
3663 1 5.874518408538993 3.16740536889509 16.702649293539686 0 0 0
105 1 6.305469855106075 3.509466100461074 17.572512057705495 0 0 -1
109 1 7.461411035925644 3.498272502116906 -0.3228138296829643 0 0 0
3667 1 6.9172614297632045 3.1756455961699075 16.804174031676972 0 0 0
3708 1 6.484839792544147 4.079094811901292 16.72092243003891 0 0 0
113 1 8.62244565076518 3.4234649705479225 17.59076971460049 0 0 -1
3671 1 8.04158168087713 3.0505985114783125 16.892029453659234 0 0 0
3675 1 9.189939996997996 3.1049546799435443 16.738524973191282 0 0 0
3679 1 10.240622669292197 3.1663399562124943 16.739405293084502 0 0 0
3688 1 0.9093633709068403 4.258579706966274 16.73826871840322 0 0 0
3684 1 10.745680492815769 4.049597276376928 16.71406076164464 -1 0 0
3683 1 0.373260049864785 5.092691284844213 16.705957915628076 0 0 0
3692 1 1.9609360922670809 4.091187607736304 16.68655217587012 0 0 0
3687 1 1.480224579325336 5.155631558601382 16.700824643848996 0 0 0
3691 1 2.4929977634829386 5.1084350084229015 16.655828477314486 0 0 0
94 1 3.633720178968829 4.389571026532342 -0.34862187464151306 0 0 0
133 1 2.9525117802617453 5.341011597954713 17.549843353695003 0 0 -1
3700 1 4.306243006511311 4.137760884114536 16.615865036504424 0 0 0
3696 1 3.2882153940486387 4.07377103617854 16.760265535323533 0 0 0
3695 1 3.5216790990616205 5.096566717458972 16.659528781993323 0 0 0
102 1 5.8883818459917405 4.454134178399609 -0.3179013671120039 0 0 0
3704 1 5.339229315257005 4.025531590428088 16.680452362125855 0 0 0
3699 1 4.694727523114175 5.126612037443914 16.678342814733846 0 0 0
3703 1 5.69881345789629 4.905083697988098 16.689451082317632 0 0 0
145 1 6.296427303912081 5.44605619104409 17.5226977734686 0 0 -1
106 1 6.942063199830813 4.490595841182487 17.592750569159072 0 0 -1
3712 1 7.439476613152636 4.110700678328756 16.768120995772783 0 0 0
3707 1 6.883811178811881 5.028789812925959 16.634420962516906 0 0 0
3716 1 8.534471949524786 4.083808158749816 16.75028668292856 0 0 0
153 1 8.452724419915445 5.415716431098015 -0.25932863297754394 0 0 0
110 1 8.008085846904091 4.353415222016808 -0.3454681205643553 0 0 0
3711 1 8.11519532553622 5.074136103747891 16.811673523099806 0 0 0
3715 1 9.12853955983551 4.944815715510258 16.730959699834166 0 0 0
118 1 10.180212273965292 4.460228694493523 17.560659244156405 0 0 -1
3720 1 9.695982517119237 4.08301737305626 16.74242024839438 0 0 0
3719 1 10.310213478694646 5.053613490573546 16.659605990370792 0 0 0
122 1 0.42673433853917997 6.297236708988105 17.581817074436422 0 0 -1
3728 1 0.9456448282500662 6.043417081925532 16.76301999781729 0 0 0
3732 1 2.0253794773437273 6.0776832592329075 16.682905069607344 0 0 0
3731 1 2.5374099017772633 6.921572919259204 16.595302236510264 0 0 0
3736 1 3.0355070365961767 6.025580393484325 16.60603609223468 0 0 0
3740 1 4.229979580778257 6.043392907719484 16.79371816370928 0 0 0
3744 1 5.416328862940454 5.915626075633732 16.748763654663023 0 0 0
3743 1 5.842035783702425 7.139463333553166 16.760306401253956 0 0 0
3748 1 6.458228731619936 6.070075366246397 16.68386506244675 0 0 0
3752 1 7.597983696968905 6.0232260959360495 16.68988284902094 0 0 0
150 1 7.927146477567342 6.3508228127772055 17.57241161892415 0 0 -1
154 1 9.033255201947934 6.32046499609988 17.607154194583387 0 0 -1
3756 1 8.616990243319108 5.960379534995108 16.673761531506514 0 0 0
3751 1 8.096365440874827 7.102762675297284 16.776290038514844 0 0 0
158 1 10.092166663932762 6.315919577503535 -0.35695581868765913 0 0 0
3724 1 -0.11224116339640124 5.976497229400837 16.773603511133615 0 0 0
3760 1 9.744412363464356 5.952774620235386 16.56488107499291 0 0 0
162 1 0.3457304216926833 8.18182058320605 17.56859909833078 0 0 -1
3723 1 0.35645109607797687 7.002529634510248 16.603281221078298 0 0 0
3768 1 1.0319969649595861 7.857070463477463 16.664729659246582 0 0 0
161 1 -0.07885552142566044 7.227820007958907 17.44655071111258 0 0 -1
166 1 1.4602638446151506 8.240013897730368 17.537007680465287 0 0 -1
3727 1 1.4785275782435967 6.925536769289837 16.72473068052404 0 0 0
170 1 2.50539157793663 8.29392873318411 17.46230080404824 0 0 -1
3772 1 2.064571111080114 7.949996481727506 16.69536280990294 0 0 0
3735 1 3.701500995739325 6.983502237140486 16.739486344865092 0 0 0
173 1 3.041826911982018 7.274045964804156 17.476445891182898 0 0 -1
174 1 3.611713731629232 8.10120947466502 17.52533866754628 0 0 -1
3776 1 3.1353378727187784 7.936888860358323 16.64255551588505 0 0 0
3780 1 4.2941599575571985 7.972106712790355 16.71778648055318 0 0 0
178 1 4.761571228718584 8.237178018717906 -0.32431030391949134 0 0 0
182 1 5.861391507821184 8.158806928022813 -0.3393301024830848 0 0 0
3739 1 4.82370162436783 7.029236670061077 16.80734661830961 0 0 0
3784 1 5.328998278397474 8.022821313375642 16.804475534010102 0 0 0
3747 1 7.043629357992231 6.935058219815051 16.71399894225435 0 0 0
3788 1 6.374248457541366 7.958247095105273 16.638455116820204 0 0 0
3792 1 7.448191424626549 7.887331507637249 16.694946559689846 0 0 0
193 1 8.563048866745596 7.282065066948366 -0.3109364207942916 0 0 0
3755 1 9.162605194334787 6.96660763055795 16.63231399842207 0 0 0
3796 1 8.594174626232395 8.034848631669833 16.611937856328865 0 0 0
3759 1 10.29945254194811 6.832255270227361 16.649349990504263 0 0 0
3764 1 -0.1853187690070621 7.999796565547138 16.540201149769885 0 0 0
197 1 9.671210967379928 7.248951675391819 17.49304410027966 0 0 -1
198 1 10.291820547280881 8.102128464299616 17.605970152196544 0 0 -1
3800 1 9.754894864271915 7.808402277168652 16.478593989142723 0 0 0
205 1 0.9499383532183587 9.10526803768169 -0.3381675349417494 0 0 0
3763 1 0.4574677560924556 8.955135035899113 16.751247841261126 0 0 0
3808 1 1.0522180152664133 9.724438846482586 16.78889770987911 0 0 0
3767 1 1.5602537418650742 8.853411136348639 16.716583435548586 0 0 0
3771 1 2.556930864853506 8.928736077003165 16.736962263479235 0 0 0
3812 1 2.0356821300154646 9.866487177896301 16.65851546058707 0 0 0
3775 1 3.6316103552974877 8.865043789888992 16.614407412364805 0 0 0
3816 1 3.0935295791111175 9.735579864342276 16.537292439710725 0 0 0
3820 1 4.21236622125425 9.852733777194924 16.712918488989338 0 0 0
3779 1 4.855658332198654 8.926967311290856 16.715315259115087 0 0 0
3824 1 5.467344547631483 9.933746885286213 16.682310510126435 0 0 0
3783 1 5.893107806762192 8.874217120625353 16.76592948527032 0 0 0
3787 1 7.012293044285268 8.911747769295262 16.773526010984206 0 0 0
3828 1 6.489458469736478 9.75224023970573 16.707078554602354 0 0 0
3791 1 8.079960305661995 8.89494150960884 16.656899191183832 0 0 0
3795 1 9.193329883612378 8.888775505850688 16.704037717146306 0 0 0
3836 1 8.547000377214268 9.945844076039974 16.735362514047253 0 0 0
3804 1 -0.10853790441012366 9.867248033678544 16.55620616452415 0 0 0
237 1 9.768534651820687 9.212647509764297 17.569322112753234 0 0 -1
3799 1 10.339594950392751 8.930647644646232 16.74838756389041 0 0 0
3840 1 9.7028119442122 9.743481606838913 16.6091880883464 0 0 0
245 1 0.9535598913427961 10.987001039779207 17.542756140127977 0 0 -1
241 1 -0.10518969370274034 11.023592253644722 17.54482377771614 0 0 -1
3803 1 0.4091040244835372 10.785374532427243 16.64769544944221 0 0 0
206 1 1.5092937371222988 10.097344504146939 17.551481125189987 0 0 -1
249 1 2.0690143163979973 10.996996966250737 -0.3412868567502619 0 0 0
3807 1 1.4831760175239859 10.802689249685434 16.733495267650277 0 0 0
3811 1 2.6164701647977884 10.794138105638618 16.658436109668173 0 0 0
214 1 3.683420869135296 10.180796774726506 -0.32496138578544986 0 0 0
3815 1 3.624820050837805 10.739858583290705 16.7275077147562 0 0 0
218 1 4.673375552946344 10.101816656295782 17.601142289588914 0 0 -1
3819 1 4.766257061951805 10.81795884394059 16.835839587669504 0 0 0
3823 1 5.867822057227163 10.856059347025866 16.735433897531315 0 0 0
265 1 6.320367351209157 11.203872676248862 -0.3279768874562306 0 0 0
3832 1 7.5007057137297375 9.823743289682264 16.701344844578706 0 0 0
269 1 7.523749752709065 11.120737985595897 17.505361233429 0 0 -1
226 1 6.897306222509126 10.322629964466119 17.515326451923727 0 0 -1
3827 1 6.906087378026906 10.826369189724895 16.67431591460216 0 0 0
230 1 7.943385913296127 10.150528257860037 -0.35958700037700453 0 0 0
234 1 9.274244071239504 10.124634887526353 17.569968715278883 0 0 -1
3831 1 7.9459346294722115 10.817955217782366 16.660718576280203 0 0 0
3835 1 9.271536703410593 10.737400501191175 16.760131920230208 0 0 0
238 1 10.394644377529001 10.05464329218155 -0.34841540075027405 0 0 0
277 1 9.711631750727836 11.200069285970272 17.561795167869015 0 0 -1
3839 1 10.283523366961564 10.692734887091873 16.758734983631427 0 0 0
3848 1 0.917427553289812 11.641632049786583 16.749657393611344 0 0 0
3843 1 0.40849783380747706 12.553567636638862 16.62132077666584 0 0 0
250 1 2.473826180551771 11.989088737614791 -0.3576299866129758 0 0 0
3847 1 1.5345805236095211 12.599623911422729 16.732462981171466 0 0 0
3852 1 2.018267462300255 11.637685944485867 16.567643097371807 0 0 0
3851 1 2.552071970100036 12.535885651873068 16.717739459985225 0 0 0
3856 1 3.134592163040335 11.656353821653504 16.68638057232309 0 0 0
3860 1 4.189023503653656 11.766239799022332 16.794257135858636 0 0 0
3855 1 3.6034479206461367 12.699879838568316 16.682776732972393 0 0 0
262 1 5.814287414889252 12.123028878928633 -0.2638874807689598 0 0 0
3863 1 5.794125387264613 12.778651882695854 16.766225918492474 0 0 0
3864 1 5.409088968576049 11.811802037308224 16.845614166996278 0 0 0
3859 1 4.701145073790473 12.67477661831415 16.682944739869924 0 0 0
3868 1 6.379587881530882 11.774579518012903 16.76589728584498 0 0 0
3872 1 7.490055637841598 11.712583104559235 16.685980434996893 0 0 0
3867 1 6.972263901011906 12.701087616308696 16.71835150881062 0 0 0
274 1 9.208478064600808 12.07141195091433 17.566756070667594 0 0 -1
3876 1 8.574993761018387 11.623743033384134 16.69980513098872 0 0 0
3871 1 8.071111265568124 12.579115830441953 16.72539453254769 0 0 0
3875 1 9.132509756708092 12.629642691029217 16.719757204165617 0 0 0
3844 1 -0.2078987229994631 11.677631834595406 16.752259125729722 0 0 0
278 1 10.227291080219661 12.051630937507845 17.553724286503282 0 0 -1
3879 1 10.224094781339385 12.78278146875492 16.82438441169866 0 0 0
3880 1 9.696878852002385 11.82243105131518 16.651096038685353 0 0 0
3888 1 0.9435223479219017 13.535705652017764 16.731907805111994 0 0 0
3892 1 2.0755776780415407 13.484626531714452 16.650024483041577 0 0 0
297 1 4.1459636348736515 13.009034514169699 17.493964552628128 0 0 -1
294 1 3.6612579244444468 13.94738405002339 -0.30918236886027056 0 0 0
3896 1 3.0963232890062913 13.618609703699981 16.812689159418625 0 0 0
3900 1 4.1792160344251865 13.636800089646416 16.69639158484877 0 0 0
302 1 5.747774340522843 13.921439372379414 -0.26728379176290623 0 0 0
298 1 4.751466848327604 13.931018389263961 -0.28196466163765266 0 0 0
3904 1 5.225833519234641 13.770669152786564 16.773530092782806 0 0 0
306 1 6.94744341183832 14.091269371172126 -0.33346074121787667 0 0 0
309 1 7.4048704286606295 13.0595296613407 -0.35685079104925227 0 0 0
305 1 6.286107821480733 13.020642919687836 17.573634522775656 0 0 -1
3908 1 6.335283454002765 13.712955729891362 16.834992186287707 0 0 0
3912 1 7.3240441501149585 13.591445234266033 16.753739596265866 0 0 0
310 1 7.969367045968851 13.951798485316454 17.603121261761217 0 0 -1
3916 1 8.486480972133648 13.57333938930875 16.736879464661065 0 0 0
3884 1 -0.0709936256790927 13.52878459078992 16.754684177393713 0 0 0
3920 1 9.534822206842229 13.508582865804 16.78256561915586 0 0 0
325 1 0.9206660300740523 14.9049711456509 17.558473752500383 0 0 -1
3883 1 0.3414314631638765 14.501762689080746 16.60915138821334 0 0 0
3928 1 0.772122701379393 15.38590676401763 16.639989500366887 0 0 0
3887 1 1.506915663117793 14.520302943392856 16.75049842674516 0 0 0
3891 1 2.492843827082707 14.516426370702606 16.64713755584262 0 0 0
3932 1 1.9060747793007944 15.488521505068856 16.736045400296966 0 0 0
3936 1 2.9887122925182585 15.481759381057572 16.808167727902692 0 0 0
3895 1 3.5765628525263833 14.568935622053116 16.764045005623494 0 0 0
3940 1 4.1724555710866165 15.561933623694285 16.777152825841192 0 0 0
3899 1 4.651275148245504 14.638447928669118 16.846245322077472 0 0 0
3903 1 5.819822164181796 14.644011471242779 16.879302936892465 0 0 0
3944 1 5.190864657196477 15.689356200724394 16.65235470341797 0 0 0
345 1 6.335023174856092 14.886611978481389 -0.29688239068349953 0 0 0
3907 1 6.814093896191762 14.57617000492019 16.628293843896415 0 0 0
3948 1 6.277812574467028 15.620580305997795 16.75702231001258 0 0 0
3952 1 7.479463984652627 15.578415967669601 16.663887314231516 0 0 0
353 1 8.548174072535083 14.869037973999266 -0.3317617571259625 0 0 0
3911 1 8.004930736347355 14.50697836716778 16.70005078906732 0 0 0
3956 1 8.494813793068204 15.449669319302386 16.684249231823443 0 0 0
3915 1 8.978786986236965 14.377892393593397 16.77570752141191 0 0 0
321 1 10.712364687720516 14.869038165499578 17.57631943428489 -1 0 -1
357 1 9.610242649122803 14.906916027890786 17.534211935253232 0 0 -1
358 1 10.287915424282847 15.821059885047795 17.593147735540075 0 0 -1
3924 1 10.730079297423085 15.47496848377543 16.710764549177966 -1 0 0
3919 1 10.18896173392255 14.407545399064611 16.739821280632114 0 0 0
3960 1 9.50605390349071 15.276332355150466 16.633913085424673 0 0 0
322 1 0.3898450706921399 15.822032493947837 17.47986905836624 0 0 -1
3923 1 0.40356240834307566 16.40554725187203 16.612461034785625 0 0 0
3927 1 1.5182156777107965 16.533279265202264 16.76347524893476 0 0 0
3931 1 2.5847123115183748 16.370795413891763 16.69344909635752 0 0 0
3935 1 3.5949848000069458 16.343136443591334 16.69245757177221 0 0 0
381 1 5.322427441056596 16.862275134166723 17.595431703620953 0 0 -1
338 1 4.71498096647232 15.812944995528163 -0.31515879837698385 0 0 0
3939 1 4.664152170822878 16.569468935330352 16.678065389834828 0 0 0
3943 1 5.845509121520888 16.546787935263342 16.612086881312642 0 0 0
346 1 6.872238619175867 15.931147991368615 -0.3154671324383836 0 0 0
389 1 7.5082024318147145 16.85994137167272 -0.3250256867083403 0 0 0
385 1 6.35334228999211 16.801758881926585 -0.35560711249515825 0 0 0
3947 1 6.88722370527867 16.50136248599576 16.79823347646269 0 0 0
393 1 8.620461140387668 16.908261910879915 17.529674375024264 0 0 -1
3951 1 8.037918358232155 16.57097483029791 16.687759329563413 0 0 0
3955 1 9.136932327333742 16.578521402654786 16.757492940920095 0 0 0
3959 1 10.301348697169015 16.397960807889984 16.793446851028115 0 0 0
3968 1 0.9450481720473374 17.42567613816637 16.804262956321757 0 0 0
3963 1 0.38553955468248047 18.2733803194673 16.735688764999246 0 0 0
3964 1 -0.049933453680504086 17.25649200410107 16.807109217248517 0 0 0
3967 1 1.5153903804395916 18.408537381409484 16.71073140378855 0 0 0
370 1 2.5310620004739253 17.624266684172227 -0.3299170282313376 0 0 0
366 1 1.4785303797768752 17.742395671420343 -0.3326115790701819 0 0 0
9 1 2.1396287401179896 -0.3180883546983312 -0.3544940180255267 0 0 0
3972 1 1.9058469292284324 17.451587915340276 16.531249360316245 0 0 0
3971 1 2.528673907307989 18.424967010987658 16.753036101319772 0 0 0
3975 1 3.7079430216683886 18.459505518275897 16.72731160865699 0 0 0
3976 1 2.9913848769316047 17.31504930400524 16.743006073543654 0 0 0
3980 1 4.104892657575636 17.39465000152223 16.770229547907668 0 0 0
378 1 4.725591245974825 17.75691776388693 17.589898772310768 0 0 -1
382 1 5.818557730064597 17.80874905255153 17.577343570957737 0 0 -1
3979 1 4.715337471517835 18.395327707398128 16.70530831335718 0 0 0
3983 1 5.794988387284792 18.440523494725035 16.717042356463757 0 0 0
3984 1 5.270252773587922 17.457630690329147 16.730223320524424 0 0 0
25 1 6.3806398929746075 18.674228572314615 -0.187220835681263 0 -1 0
386 1 6.954578494375956 17.793875313410872 -0.24050180087392714 0 0 0
3988 1 6.350008352258463 17.391531863270036 16.768743648729192 0 0 0
3987 1 6.833592723977704 18.26227568498718 16.821034163728164 0 0 0
3992 1 7.386461041940094 17.44694582782752 16.861787796722652 0 0 0
394 1 9.346699734416102 17.666743033456303 17.499835782116484 0 0 -1
3991 1 7.946730568830753 18.416248083448565 16.66551754866861 0 0 0
3996 1 8.669451974730382 17.58308335455861 16.778780054023187 0 0 0
3995 1 9.17996885157254 18.50559041472931 16.64847265981671 0 0 0
3999 1 10.41998278760077 18.27662312410756 16.623085043756404 0 0 0
4000 1 9.828809116313018 17.427467853924167 16.62916233202658 0 0 0

Velocities

8 0.5803001280228562 -0.6492229782918635 -0.6022008503824814
4 0.5182543946489954 0.5225858504476342 0.5675062326726403
5 -0.7339900798071122 1.8797325114513839 -0.016082578546478196
12 1.0751606229188138 -1.2452396951915308 -0.0839472299320346
6 0.11767384962462607 0.856949536518081 -0.772146840325315
10 -0.6151132436620733 2.5801013068530536 0.7593807199647669
16 -0.12052475951055806 -1.5890968783212984 0.05436368018257072
20 0.6359811332880524 0.7786967911699791 0.5514871229620645
13 1.477070325539805 -0.44940739377094635 -0.7130752298619898
24 -1.5274350723587433 -1.9882770252002957 0.9383956837705121
18 -1.4981312245516605 -0.7398031881418529 0.36121276684439374
21 -2.4910726420767024 -0.16935875778529577 -1.8909917696584113
28 -0.7623920508085481 1.6460004201310754 0.5173921740195117
32 0.27567260931570803 -1.6605132588466358 -2.05393683245295
26 0.35890782929522064 -0.13343428501241045 -1.4598671940712835
29 -0.37857343982272545 0.1422285855680847 -1.2453588635875108
36 -0.822753689334439 -1.9916039858583607 1.134074265821679
40 0.4023420518107051 0.015569964901724652 -2.077388127498779
38 0.07709764475818509 0.1891082245682217 0.6306140550414423
1 0.7178174517229269 0.2725734149570219 0.5022314388483953
37 -0.29314834531637207 -1.7913828033922414 0.7058358893811264
3 0.761760065506173 2.0310582237893704 -0.18658646895266057
48 -1.0353104295809992 1.3067148772422064 -1.326456872645331
44 -0.06295645415202777 0.008420883652604736 -1.1548484791881173
42 0.505261153381535 -1.2196362565452301 0.5198816968948697
41 0.8280333510427735 -0.7427013076191187 -0.7809396489834448
7 1.1971074733794616 1.0487920137107294 -0.44340937995372864
11 0.20767174026821575 -0.6804517719457482 -0.25283026817267984
52 0.0183900320475104 0.8718782769660478 1.064628124568378
49 -1.8611777951587336 -0.44094812774588577 0.09338962567457988
15 0.48103534598650444 1.3886009644686808 -0.7752079538852016
56 -1.5597681086854178 -0.5450270561349143 1.2352566733784898
60 -2.1602816055657077 -0.7127051361370984 1.5290071626530903
53 0.6675952157322339 0.4981897079280329 1.5402947480237497
57 -0.33012565726122933 0.8283292330571977 0.6714627147500236
54 0.22999191246227627 0.2366256889118271 -0.9454639745913677
23 -0.13954601359454208 -1.6165736396548527 0.33330208375151626
19 -0.658457551368773 0.2741885222008277 -0.7995892406888524
64 -0.9782462410854035 -0.032682545540403535 -1.3126223751379262
61 -0.8299209591753071 0.7720213029919963 -2.6899695710813796
62 -0.06157098290884371 0.8735645122725173 -0.6975893709789386
27 0.4526785283430114 -1.3996403824426902 0.012017320022318098
68 -1.3508034024800453 1.030435165130044 0.028004339809265793
72 -2.3354314195252557 0.7633261404566083 -0.3650671457678295
66 0.5632421499575212 1.5144674466079069 2.080707929260862
69 0.581763718427406 -1.9258573547325992 -1.1467092363298792
31 1.1850161784251507 2.0223482607868393 -0.7488101565176453
76 0.22608602596329833 -1.895067290863213 0.6846405970676289
73 -1.609770207195403 0.1502076478662608 -0.4770522037343042
35 0.951720252071095 1.45041286051257 -0.8995206874542314
74 0.5521886655344275 0.11469807736383876 0.1713603697614976
39 0.9038524674433395 0.3542972568978855 -0.6402754746456666
80 -1.4524634546186377 -0.8243381039363222 -1.2181440777284127
78 0.2252420874522332 -0.8482617554365522 0.7549471227860489
77 0.4510440678111515 -0.5120960347676516 0.5429808640075924
43 -0.455100797731001 -0.41458745815043196 -0.025207184224591974
85 -0.3865491741431067 1.1936395938773858 -2.0688941714934543
47 -0.3511847597269477 1.2394170218402853 -1.5586307576925154
51 -1.412346776964986 1.8850057383667569 0.09601029465308276
89 -0.12846760175046135 -0.924610120167491 2.2290246587007454
55 0.4833022501055962 0.18946428722285388 -0.42396910467537235
93 1.0098838556603682 0.2024826571235319 0.9557287933398054
59 -0.39710232715163 0.6411371123880268 -0.8703770577741994
63 0.18170201186342347 0.5662663986104695 -0.3597498851285603
104 -1.296082153761313 0.5230533980794945 0.7759568988321026
101 -1.1795403725903235 0.5606731055719263 -0.01182064327252823
67 -0.24445513117595247 0.9434102866150934 -0.6602302421825916
71 -0.45632943550871297 0.09738291760435676 0.31268267313569276
75 1.2782011785170453 0.2851278646210109 0.5997115285798907
79 0.4467198994682816 0.4012313580076616 0.6548978093803376
117 0.8747137380964589 -0.6806459080328521 -0.8831328809409856
88 0.6287380848970773 -0.9145207750665596 -1.042166898270972
84 -2.294128867250521 0.6573896130443789 0.6043712121485001
83 0.454539647616664 -0.6275030517276244 -0.5586586224017849
125 0.30121297021999527 0.15909887950776475 -1.3269442916851792
82 -1.5227126242906108 -1.3973710970522824 -0.04549303165836478
92 -0.5462276213472618 0.7052477234961898 1.5296866114952754
87 -1.328734168089454 -1.4576382674055959 0.40004968597144397
91 0.5269514920239117 1.4039810973127989 1.231508470834811
129 0.6564341529598071 0.14533770589497433 0.5770686890413596
86 -0.1427345354884447 0.010529050474979647 1.0635114095213063
90 -0.3051892430733405 0.6130895314984054 -0.6695301418918254
100 0.2766068454116133 -0.7468439672825178 0.5594011487094794
96 -1.1347635118593724 -0.33133733089746015 -0.522002070957625
95 0.8324671208365262 -0.6013921875972075 0.7457185817687794
137 0.2133707343156975 -0.6435657488157175 -0.3154804593073463
99 1.104490763099295 1.3939030099654073 -0.13288064804805946
103 -0.4217182823750531 1.0071808731762357 0.8772042343880887
141 -0.7384171082164745 0.99332361787639 -2.0170773674768534
98 -0.5186162336440691 1.594815823271712 -0.43704274198918935
112 0.4241179654492967 -0.7034646630805864 0.749313035480401
108 -1.7472240592923496 1.5011164954040244 -0.7647682888044725
107 -1.451749314738507 0.6100956162821949 1.389234699310053
149 0.5810024514219035 1.687307765675111 0.6232867479266232
116 2.1438621910364803 -1.7677374434829434 -0.277113347797348
111 1.4467132663628137 1.2057361765919554 0.003831135252593997
115 -0.7587743535657503 -0.14488779253123937 0.03222595008978029
114 -1.5220436181189265 0.4940745505581834 -0.08403412891461084
120 0.1970702100897782 0.4682310962114415 1.5990034780139575
119 1.6719151533458656 1.2221637570430697 -0.33769104434675323
121 0.6168820438540763 -0.30262056644661306 0.6586769578838594
157 2.3295931758477075 0.5027635594911426 -0.8265277468070613
128 -0.8580406885188135 0.20089029380110485 -0.8706025497614265
124 0.7972893176788387 0.0919906289539283 1.6509760607918382
127 0.4062313922237146 0.5613847464612418 0.6419287392248405
126 -1.37086154857426 0.49042054322851697 0.4628942994672444
132 0.9040083379882524 1.3271990830893172 -1.4141738612668768
130 -0.3828572500366402 -0.3888211950361647 1.8234691514833052
131 1.1162569263999678 1.1008727377275687 0.462945350644669
136 -0.22017756159820104 -0.6424273766389745 -0.6944253684194327
140 0.3481827807568511 0.3004970207795899 -0.5177021976183737
134 0.14151056881697394 0.804860015058739 -0.5489148114944735
144 -0.39219743573936766 -0.4308629088467505 -0.05289698671597424
143 2.840569916106336 -0.18957108907292958 -0.3358623094750078
139 0.4146747618407076 -2.2351966099031397 -0.7330449539042218
142 0.16506801889185677 1.1192070886596979 -0.26385944636318326
138 -1.2797263706418738 1.349253394887527 -0.24644082805038361
148 0.278688579542046 -0.9325511452534214 -0.48900502590069206
152 -0.644746995042147 -1.2446276235085336 0.8270163877032224
146 0.5766716456793464 -0.45478153685652095 -1.402727115271478
147 -1.0713229313888306 -0.3279432726503581 1.0173450867230083
156 0.3390935987076746 0.8080983654145643 0.9389728483646822
155 -0.3967144887760783 0.471986191649786 2.955047359878957
151 0.32828882344397703 0.4912825488205264 -0.24192333149305567
160 1.3083452904895525 -0.35981597344452765 -0.10477631704000061
159 -1.6090649500340914 -0.35641713615357096 -2.061557253999802
123 -1.132780230094544 -1.6097172286283923 -0.351177486403606
168 1.2604056318173833 0.8589372132889203 -0.2246745639037726
165 -0.809926808969896 -0.41249565443048297 1.3770852743477051
172 1.0137577911889353 -0.47507085710848196 0.822415873896769
169 -1.3758937029476979 -0.2861191118158239 -0.9488229591187076
135 -0.8360374294146292 -0.7900344580250543 0.3329186581866987
176 -2.0078024546922473 -0.39647502978838556 -0.2763028374716313
180 0.8475845292967991 -0.1094761279419417 -1.7413690503128911
177 -0.9844031957635938 0.6621373199930329 -2.035984611039141
184 0.2457481160042791 -0.8350075835660468 0.3100068168918457
181 -0.20128791336043986 -1.1038389807668663 1.3658258803659813
188 -0.14207889784586705 0.08237023492464186 -0.16084203757722598
186 0.20803807514808687 -1.4631898141318587 -0.729003780041485
185 -0.5213403879590605 -0.07694259258446255 -1.520120183797275
189 -2.2354066780203565 -1.0790797881257226 -1.1745814559833674
192 -1.8290323931952275 -1.0700508506769781 1.4772795511049108
196 -0.3605166736959322 0.6808039342658501 1.7024556743381982
194 0.5218767697288298 -0.7984758112803026 1.5283580648408457
190 0.28875194174658214 0.647750242055173 0.6577679799287257
164 -2.412752997620441 -0.23003728381082147 1.2257091035462686
200 -0.2973497806271432 0.5798441160778902 0.3113392403545453
163 -0.6106315966668363 2.765062158470804 -1.641458968409835
208 1.1479824003729964 1.3407311474421835 -0.4344877233713321
204 -0.06567877469632463 -0.009661086177201498 -0.4655284185214763
201 -0.8593627507503302 -0.6641898495907537 0.5446505803274052
167 1.425397513649124 0.421611125434467 1.4428699571959764
171 0.4347354649520939 0.7878977652258489 -0.8558177664422867
209 0.38095698067998973 -0.26775201321295583 0.2218023916532121
175 1.278704056500391 -0.5352231207983391 1.3522147741833002
220 0.3119506272612513 -0.6676851404246429 1.6520881622207477
216 -0.22160571598616294 -0.550397719027006 0.7835538868410915
213 -0.26393262951149415 0.09623144419076608 -0.314051474738446
217 1.5852402443188862 -0.4598455845435408 0.0527407919894489
179 0.23940662815597186 -0.5216687174878952 1.5957110753539698
183 0.6038931399251782 -0.5521337216330972 -1.239718729583952
224 0.7501138367497061 -0.9654721781032278 -0.9302306096081941
221 0.010564444147584567 -0.21110855916592233 -0.37276668299307747
187 -0.37209685957587135 -0.5508416872714073 0.14710916662849763
228 1.6238684592371335 0.23067104413832973 0.08568461736775568
232 0.3554750574134785 -0.06013201018404177 0.5848702776077447
229 -2.701439554305616 -1.0451064880069196 -2.032755178337335
225 -0.4475800365760617 -1.0663803382199744 0.6516709220080359
191 -1.1268074053646207 0.905650011229659 0.7392377076641938
233 0.34002933709356076 -0.11181499631290441 -0.564911257861944
195 1.1749180492121207 -0.35964277680731244 -0.7298590778989811
199 -0.8797225824726319 -0.9063365775107952 0.9090199715349949
240 -0.03341320768369098 1.6285581092614774 0.7206976647305378
203 0.2462090791993678 0.6743630916525253 -0.5546819212027632
207 -0.33036041229155566 1.1491867501952575 1.7865660928469542
202 -0.14849593551355392 -1.807635298397097 -0.7455725203910791
212 1.8926194207108176 -0.8108531996748612 -0.044252409963143634
211 0.20096213587384984 -0.9566815196769594 -0.03515601222342692
210 -0.7314991582725018 -0.6075418817048936 1.2429843925311597
215 -0.6627405235000952 1.2446831358582526 -0.7535463220173825
257 1.2288319681946882 0.4174131331832166 0.6929479509856421
253 2.8215983167493146 -2.603605358554401 1.0571977424529715
219 -0.8214445001838109 -0.39658800631448005 -1.2791476027750304
223 1.972030647604682 -0.317497610846848 0.89518530165601
222 -0.5954664069345958 -1.170931953365167 1.6538556436314893
261 -0.9759510391769162 1.2909679518563932 2.016047913078409
227 0.0019637543995153304 1.8915655902291952 -0.7157883645335071
236 -1.6036196045225382 -1.2480515110321588 -0.15944435941168542
231 -0.29315780264551355 0.6327171494258242 -0.9623142617322783
273 -0.4812805628901489 -0.26402624809093767 -0.23373100640832664
235 0.35081079790354486 0.29518429955042935 1.1972494298589855
239 0.5990633315088556 -0.11441599461391515 0.7457578172144719
248 -0.015248514505310264 -0.18936103313167754 0.22965509873138967
243 0.05688555293349377 0.7769348532663943 1.9790148890822066
244 0.36061841390757954 0.33668328635446737 1.8768693302441763
242 0.6744752192614002 -2.5822952187604518 -1.0769903455983738
246 0.3402686435082256 -1.9203036801193358 -0.3908076501277865
252 -0.17925168492942217 -0.3894843096172445 -1.9832936810442137
251 1.0322288731029672 -0.8752458041169461 -0.6069467187972344
247 -0.6428213109657627 0.874785369748807 0.3668445786130052
256 -0.26371625505559376 -0.7667259621512182 1.2734210459029016
260 -0.17907259555844593 -0.29485566477214903 0.36058560335608164
255 0.3454677546218342 -0.9723917229911666 0.08528391803774224
254 0.654126589638584 0.88393731395567 -1.4292249409030333
264 -0.8376549335712581 -1.7316170078027928 0.30939091441325617
263 -0.06643361453552539 0.07241856221444175 0.14707245431909347
259 -0.13522597209372383 -0.06595440385734849 -0.6429504641717125
258 -0.28218298306394674 0.17486589859189983 -0.8828625535414758
268 -2.414703037874594 -0.5890167124082909 1.9672140823274258
267 0.8159801263692144 -0.3718403783670394 1.7027355127154613
272 -0.3009930463857332 1.1134583707984145 -2.1308691965378332
266 1.031806498475868 -0.8222602575337076 -0.5328079665526214
276 -1.430204795564878 -0.5942880637227003 1.0187782943767505
271 0.14436663257701343 0.3827803367423739 -1.5348133390215546
270 -1.3969800848430047 -0.6591654522109512 0.7360064154179008
275 -1.122872611970689 -0.6245766104041685 1.0117992974898868
280 1.0808873676540989 -0.9275702863618418 -1.0131975376429467
279 0.4715985405191902 0.046702570808761355 1.7135421222423322
288 0.4409659425303629 0.9270003764729965 -1.061860155916255
284 -0.2591976760412816 -0.531235851172489 0.16096986013031875
285 -0.03649474358823438 -0.7125980567474689 0.2815551874364882
282 -1.5725370120089173 0.9756792523736044 0.15355238664465407
281 1.82428540589972 0.5076108781421808 -0.2122306064987083
292 0.18821560063830997 -0.9277580172499089 -0.611096940387051
290 0.1981182210593815 -0.19492476760269314 0.5775046795178006
286 0.8622838613289382 0.5062137687288267 -0.19682344955443276
289 -0.93092832422528 1.0925512609630044 -1.3118949468816077
296 -1.2099716697058636 -0.8935994370102217 -1.5114354752120822
300 -0.11128504978090153 -0.30672048945349084 -0.899943236463461
293 0.22202966441689714 1.3678343974558758 0.016530028241489025
304 -0.7049341218983584 -1.9364983963524962 -0.3901690858538783
301 0.6428942381373872 -2.4053315056903433 0.001102850751049296
308 1.2759673445381723 1.7619213698962362 0.716678800190012
312 -2.0152340797179034 -1.846239039729208 1.686377753591502
316 2.0153309430676374 -0.3539581207115557 -1.6852791496536947
314 -0.5545095534857867 0.8967640301890958 0.1996821647133195
313 -1.7088711991183698 1.2379093448806644 -0.6148276688611966
320 0.6416918429184197 1.913338258137626 0.20631704190634112
318 -0.7480855440367529 -0.7983701007693662 0.18216122749724267
317 -1.1062520893610646 -0.04881115249018657 -2.736208935219758
283 0.13527256207486 -0.08717865970513543 -0.28265039406055953
328 1.0670604109045778 -0.9152668062972464 -1.8705941105818114
287 0.6368722512353195 -0.030977717649127687 1.2179932874811021
291 1.0118495707161672 0.09929037920099586 2.2129503176411363
332 2.2267571022131696 0.9110599615766581 0.5611723406791939
326 1.0529664186030119 -1.0568626846417888 0.8503841948594837
329 0.7643017239267735 1.9945126188481506 -0.6978372333895679
336 0.04028605095113555 0.263884148717423 -0.5495525066994099
295 0.14387067697468528 -0.1013052130734345 -1.1669411860404513
340 -0.09622773691423002 0.14326226865313568 -1.729393936822044
333 -2.312743087384392 0.22803172710616343 0.06885227633986275
337 0.1320028670175127 0.523224393438741 -0.22581615246294737
299 -0.3006170913461691 0.8325443435758266 0.38959466207537563
303 -0.3630184399291088 0.02136248437507527 -2.4393923642784596
344 -0.5443464442152951 1.19783363122322 -2.1885528833872745
341 0.36254503199320054 -0.7604962952017476 -0.20799280562495198
307 -0.9476916888896285 1.7956788322839856 1.1155853916728347
348 -0.27070319294148304 0.36277785944443436 1.8729327403711307
352 0.41620421207358593 0.22648018717250487 -1.0928706920766287
349 -0.6169222453513893 -0.4577576850199996 -0.7642009402284501
311 0.5436725603307927 -0.3626485940564264 -1.5571804585378473
356 -0.7123027535770565 -0.00663954908937851 -1.0042849260940818
315 -0.20309668479856818 -0.6588901310274157 -0.7743778002856982
324 0.9466472595671599 0.4103030646742223 -0.23010886855943938
319 -1.41552062261763 0.816167543708216 1.5243612635825299
360 0.4694804950194125 -0.45906309612623175 2.351866962043854
323 0.5204869264935621 -1.025086204448341 -0.4543917358651408
365 -0.39905143682832356 0.1177514976114876 1.3039743130440977
361 -0.2962296839791834 1.299970827331627 -1.6016526109643243
327 0.9656940554134887 -0.8287991610204997 -0.2815992728950787
331 2.0239328594246 -0.11049974904004643 -0.008658805942865994
330 1.541962916026811 0.9951142774303156 -0.5053285761910216
369 -0.7727916323045 -0.3380569451550237 -0.24332277556916143
335 0.509667457002358 -2.129386218224188 1.5124604200681249
377 -2.4857578771197026 1.7702472295204479 0.891636956540455
373 0.6692740892294025 0.690133400101714 -0.45525174222532677
334 0.13026722940343471 -0.15047965639479766 0.09948328266994881
339 -0.06877092483217731 0.5052502622489404 0.9760568827769976
343 0.507262520188559 -0.6026657199148888 0.35209057638215874
342 0.22315534184619018 -0.9764285608953625 0.01588229957379032
347 1.2386816585328098 0.23489799360626992 1.3386623333474883
350 -1.2291602351321895 1.7492994875660888 0.8543969322760911
351 -0.698116803887657 1.1228665840373564 -0.0422074461248365
355 -1.0828350877058546 2.096379801540306 0.8930841645206761
354 -0.7217588651877638 -1.0077347212770285 0.1709976435799164
359 -0.6465615093999915 1.183149610857443 1.1786795466908289
397 0.37477781321210296 -1.811570112277981 -1.058526829481336
363 0.43113022013018143 0.5032255874027166 -0.48982589146834354
368 1.8546459950540957 0.8083264723477463 -0.23454596020557902
364 1.5484212447855765 -0.3277965688011292 0.728755863024641
362 0.14253979936528527 1.0086140690890817 0.4897380615302193
367 -0.17248694212669627 1.6074985204334151 -0.7717410030658649
372 1.3088196812098967 -0.33919134339069346 0.797728319908038
371 -0.040160599861499856 -0.3519090355136048 0.4525603559600312
380 -0.2082334889572049 0.7583102145183283 -0.24286363607312472
376 0.6137478564762447 0.1911770767860287 -1.0827164939503873
375 1.5095442862683108 1.9678581806164277 0.4616637371780254
374 -0.23423997776584699 1.0627205705568477 -0.7919090703406694
17 0.76575828912 -1.3385128855978592 -0.12400360291593926
379 2.697672793577412 0.3519942271072703 -0.35176876398730067
384 0.23673164204048125 1.4539011028711704 -0.5255387057907173
383 -1.1016581763302329 -1.0862968199565501 -1.5755233947760743
392 -1.233564216233467 -1.4235512643939974 -0.14762957751967137
388 -0.06465446594665494 -0.7124446105266343 -0.1743461093835095
387 1.289167170998668 0.0639018216200141 1.0592645944499575
396 -1.5559465102143435 -0.4101825328566188 0.7479892775834155
391 -0.5629863608272121 -1.2855434702612973 -1.8909785528078518
395 0.3387436254216839 0.5695338415023503 1.2385986767339303
390 -0.8679449591567775 1.4138248500342063 0.5453227559510143
400 1.1116362650565292 0.0777920109188764 0.05059406462966145
399 0.1069574933428156 -0.6105553334676563 -0.49641624932397227
398 0.43165591922643687 -0.1154410440789577 -0.05094552724117382
402 -0.6582032401921966 0.38487229751395147 0.6057994857863525
408 -1.1837100916789982 -0.5487311483378974 -0.9515032223561849
404 0.34109512474697573 2.04245137517355 -0.2404226345998378
405 -0.5853185751708818 0.1818498956900156 0.17887576711914058
401 -0.025515301181782597 -0.2769445092050811 -0.6094341679107246
406 1.8248652636835074 1.38513653658318 1.6021634416718475
410 0.7537434204480646 0.3355502651083646 -0.912044477682698
412 -0.1330447872583951 2.0879170001311373 -0.018587711999430052
409 -1.7083738120605048 0.1101035626291997 1.1973418327761598
416 -1.3430465548834554 -0.9627685964811343 -0.9083011680758606
414 1.9990404202499439 1.5964706515235036 -0.4520807246184303
420 1.3720946255329345 0.6041430463137842 -0.25018699939850314
417 -1.0101305152980256 -0.29438746536822696 1.329640051262269
418 1.9909925442047416 0.831302185924472 0.5493743943854149
422 -0.6676328541196048 0.15460712994253656 -0.5856160885004303
424 -1.8565158666933452 -0.21359456021869735 -0.2290190828817175
426 -0.49597888118400413 -0.3868561388423236 0.6135152613761318
428 -0.28840304093039304 0.3229059768694815 0.23109580161374255
432 0.6907557076899825 1.5297548446797036 0.5555881814826639
430 0.38884060198511466 -0.3010868034601573 1.3041718936786895
436 -0.45578853693909616 -0.4236767172526023 -0.30788465308451674
434 1.3792916727374407 -0.9323588923434206 -1.8912652721695649
438 -0.7019295434952426 -1.3064985429010976 0.9433144850104616
440 1.0891072163378526 -0.8680985650730265 0.7185160163146376
437 -0.209971530428354 -0.772395318939188 0.4070017353105745
403 -1.5872426305127407 1.3720053379098358 -0.09898143930350832
445 -1.9055356763279314 0.48271212933029733 0.8373888275929897
448 -0.3014271573998562 -0.30753546998363196 2.5253442791069056
442 0.4661614614375394 -0.18080876362318887 0.48344154463985617
444 2.0762900271451805 -1.3019707126382947 -0.6965135836741276
441 0.021931254604400038 1.3658738131444406 -0.08625193546035485
407 0.01598925191886472 0.6441422653201848 -0.42504150602017626
446 0.41584077778884 -1.9191234948606908 -1.2294233149506297
449 -1.0233492288641335 -0.45806231504787936 0.46986444933283344
452 0.2131859544859033 -1.3006842677501629 -0.5994990445128318
411 -1.2034362482804624 -0.648534156288024 0.3570833662195015
450 -1.2014162939062119 -0.191603124724383 0.6515015910233442
415 -0.4176134653408604 -0.2167530536084575 2.6917525960216384
456 1.1895198168756527 -0.8703193924254272 -0.5731211963473682
453 -0.7467936515457335 -1.49334493352978 -1.3782124365313542
457 0.2881051680731734 0.586955896518252 -1.7863074399713252
460 1.4682518375092746 -0.3020368999383249 0.7564367363154088
454 0.2628337686819783 1.040807588733271 1.2702059259146177
419 0.7104825249675109 1.5181782971648123 -0.6503810004725931
423 0.2601338085522426 -2.507663827718647 1.2965187960312665
461 -1.2947382071481475 2.5138362342469933 -1.2408440324513654
464 -1.7136246088753295 0.3207082067324539 -0.4846169438470694
458 -0.8424837622468822 1.08409144181284 0.5842382220750312
427 0.5007093377221046 1.0332080522870248 0.4294334398300202
465 -0.4562733765932246 -0.6689253711063733 -0.20740053697038724
468 -0.28517039715255676 0.4503388616246342 0.8194474469791327
472 0.5184523392755075 -0.4429314693067555 -0.6119855557138434
469 0.1467247334074002 0.6168695591707332 -0.30730545795377673
431 -0.7105717656397321 0.7866541119321483 1.3369467205924122
473 0.6243030215893197 0.5668841333978607 1.5054408108271375
476 0.02385900398212839 1.8859017677956154 -0.5609900251604117
470 0.37514320079555175 0.9063021417487822 -1.5051279297744937
435 0.06807045694186502 0.557921155639199 0.6500818235928266
439 -0.819415275556345 0.10900937217814965 0.7139462860272607
477 -0.24023955582795492 -0.11905814974558539 -0.5518122668249122
480 0.8062472884651302 0.2853422027793821 1.1105936915184218
478 -0.07917875049437215 0.7850253356476085 -0.28212651028862173
443 -0.8387012765358222 -0.866323730652678 1.181967412789352
485 -0.17686757521833554 -0.8773017776264602 -0.7110769542148067
481 -1.0339271172157671 -2.1656770017206806 -2.178966765599874
447 0.6305041581150983 0.4017610948919038 0.3255983538338898
451 -0.3387279554017062 -0.32511640793487745 0.6812783587425915
489 0.6627784639831964 0.23832909244121106 0.8430597228069134
493 0.22151180380002922 -0.7801772220289 0.9988366633805188
455 -0.5177673928034039 0.40952187848684457 -1.2885509112690605
497 1.1712905672181317 0.8167263469452416 0.12714251918891298
496 0.5387028070925698 0.2810192264364919 0.6315512597649403
462 -0.626208971450445 2.0755090966196055 -0.021089492155182108
459 0.09306461289903824 0.005194633032502147 0.4081006291932957
463 -0.4345681107213968 0.0023606614936020637 -0.2917150936953023
501 -0.4799873400368773 1.000207629726644 0.7973272400366606
504 -1.7290995660515043 -0.3942038876918145 0.5826588356362082
466 0.1554117947217405 -0.6042928005998026 -1.1317806678825637
467 0.4587912255543879 1.323007597265558 -0.28386014644818486
505 -0.2611726325281436 2.053335443875453 -0.06021480992437232
509 0.20177898594740692 -0.9323400450881845 -0.504653831467908
474 0.17655580335731694 0.7841130217474586 0.6070230760424531
471 -0.7349828013971708 -0.7339774496164306 -0.02649459555735145
513 -1.0309362702513587 -0.009763082088379827 -1.0853119189961828
475 1.956385591470829 0.019560684915680988 -0.03039409606109404
479 -0.6314986663748827 -0.5860281439621544 -1.5985524417792654
517 -1.0439831252570677 1.110610397843551 -1.751134101412688
488 -0.9208392204479539 2.9989666194262883 1.56392055116971
482 0.6570514987336187 1.1198039550316037 -1.2581524211947956
483 -0.4071230257298336 -0.16636276437093153 0.293321723785583
525 0.17714525844466067 -1.2524814977658107 1.6260145956697856
521 -0.4876506958318743 1.2657993402440837 1.075807744690493
492 0.08346699146105936 0.31335592632662296 2.3713983063455384
487 0.4500589686635291 -0.197848454040231 1.406532114774947
486 1.2044636542064682 0.6167604289463188 -1.542002560217121
490 -0.19175078514718288 -0.21508883799750106 -0.2270120163434186
491 0.15441381895356393 -0.7501312724783122 -0.054200574625739864
529 -1.1957312179209558 -1.6792444246551892 0.8867874313627033
500 0.9740769186828033 1.8394178699919215 -0.46293649951589116
494 1.5022752927535117 1.1565105727509726 -1.3403667394998862
495 -0.8133269091762758 0.6665281349197275 -0.09290204209958207
537 -0.230401808388647 0.5186816519781473 0.49076770326429175
533 -0.5737484860659273 -0.34842757202604097 0.8741932968876851
498 1.3436354207345869 -0.38205261087389014 1.3586321743954726
499 0.6618776766529241 1.3653670745968682 -0.47591955507516026
502 0.7775536179237519 1.033457526626499 1.4041757694203352
503 -0.057867625481806025 -1.8722471243069176 -0.029371165432163383
541 0.5764297363259877 0.10592808626038153 1.7153018212361375
512 0.6815538203489263 -0.693408256655681 1.0616086848516821
508 0.2826398053093826 0.051551699480160355 -0.09403437215346726
506 0.521540338942888 1.612353383915553 -2.2167331199018414
507 -0.0244175123355669 0.16738427704563527 0.6168504440781353
549 -0.5252613075759712 1.4148369875495301 -0.08339934851808199
545 0.7906918113899731 -0.17329627055954194 -0.2836415091373736
516 -1.4797436718011567 -1.6668814382693586 -0.4581290723366757
510 0.7974879894701433 -0.1004694857654556 0.2989853792065522
511 0.25023417599924025 -1.1832800773582908 -0.9967488064246781
553 1.5167438777202071 -0.2141204173100198 -0.5410423343921835
515 -0.10465097148295878 -0.5441083677919372 -0.09973865872792856
514 -0.18050434530975293 -0.5580689456476743 0.34152143650556427
484 0.07596976900822772 0.6125403199733459 -0.8610724861352131
520 -0.7740515144842756 0.2456331995139548 0.6598394068288023
518 -0.9624533798769113 -1.3668958661271517 1.073773138620929
519 0.26163629341206424 0.9737851083565361 1.423217497788624
557 -1.068732876495601 0.3534723362884079 -1.5857444064372677
522 0.8499228783224326 0.24432590156967612 -1.7848615233604481
528 0.356266200964263 -0.663444317600412 -0.24649271043470938
524 1.9168994875959555 -2.7769942636591396 -1.054995011171599
527 0.623222049212411 -0.46324524433655073 -0.3772496790201639
526 1.5941786222654615 -0.7294090243334739 0.605480282689915
530 -0.014513712535771129 -1.7109084885433032 0.38168931494963865
532 0.9100810071391027 1.970062473269103 -0.2629163602520122
536 -0.6972085461640981 0.13949309646860258 -0.20511564093024434
534 -0.7897077124138745 -0.24543112430157604 -1.4624155868629267
540 0.37690213963655644 1.3684953006853788 -0.26755109263468674
538 -0.15653923451966503 -2.4758871325911276 -1.270186895263546
544 1.7305360449716563 0.4423364685846844 0.5832721744443351
542 0.09475723367510491 0.9892415689917711 1.452959283831332
539 0.9064378395171686 -0.8078183254728637 -1.059336936015406
543 0.7153428354927719 0.765718618427825 -0.6145699397260143
546 0.2693252886962124 1.5343903613236922 0.2598953225316288
548 -1.1246499296810415 0.3900151111296074 -0.24861266916267752
552 -0.8934330172085836 0.353386612682415 0.059437660219639026
547 0.16509769409266656 -0.6649305997645145 0.4117227609679513
550 -1.2951527846370445 1.3900409651968055 1.6666499715947831
556 0.4699331327781859 -1.5941366117980698 -1.1447919160165005
554 0.08572198005849373 0.004982115692758593 0.053685342394174156
558 -0.8782517360866617 1.7217677643348657 0.7653805003718764
560 -0.9300678822500947 0.9552630503275842 -0.5261491209142374
559 -0.21880788064250742 -1.0109179184774117 -0.9454627364011255
523 1.024143810146692 1.2538418184278954 1.0215428416603654
562 -0.023443948304258867 -0.40377907583155315 -0.5860744950367983
565 0.6531127419875855 -0.24371750002061965 0.8369765540724362
568 -0.7373858430550194 1.0060289454694793 -0.025664843633466106
531 -2.247493824506134 -0.08482105846542631 -1.17511246102261
566 1.8288097690343337 -0.40904067338587197 -0.09194858364621047
569 0.7097821481796776 -1.3558082673758667 -1.0406251620889044
570 0.08918024523725877 1.1496878703291444 0.5853153343228875
572 0.41816168177596424 -0.027642482568027822 0.7168756463344862
535 -1.5780016441879352 3.0130376051898837 -0.6550695300431341
573 -0.15809302057168678 -0.4207040574516873 -0.08889473595624428
576 -0.3888299459873855 0.8883520254276954 0.06955086522739132
574 0.5063727960711021 1.839246460994261 -0.8397580609895541
577 -0.26588257563500256 -1.2260687833768418 -1.884072094465454
580 -0.022391950708385535 1.5884562901897483 -1.0159017693812573
578 0.16582722786149864 -1.7169295635729558 -1.1614887225065322
581 1.0565275852197662 -1.113247758415911 2.6908799376386905
584 0.20702551487520746 1.8975963731312413 -0.06663207380506325
582 0.2858372820470178 -1.0257250235952824 -1.500653821568943
585 0.6973227762591149 -1.0831666408069758 0.31833860957926896
586 1.5871210862668788 1.2189355803695772 1.2668393971343748
588 -0.17416103729972762 0.3737502837984368 -1.0751966806163227
592 0.4293266793616352 0.33726782368094343 -0.05751027321415511
589 0.13923907168808008 0.2022453268310692 -0.17530526961428997
555 0.2585321648375684 0.14053243790967226 -1.3809766236942942
551 -1.3056171898939584 1.6883173618615754 -0.7385951500253586
590 -1.4688010213198632 1.3186967318390104 0.07391099008184635
593 0.36968303447578504 -1.0142709515318415 -1.5394309629657577
596 0.5603334526746092 -0.9027999769865445 -1.3651908917889346
594 1.458326890201822 0.9603274820198571 -0.3611244044029842
561 -0.45061344308333334 1.5302162530966 0.07286375235407654
564 -0.7490494530467985 -0.2769901232512435 -0.1706243410251679
597 -0.24575504616008303 2.046648596018506 2.7210549649625415
598 0.46840063403496013 -0.1689256703625033 -0.8587037556373843
600 0.4564531498324194 1.0813967415578067 0.8652958298531636
563 -0.835798877859029 -0.28729461084883484 0.2384230008678163
605 -0.9628560458285912 -1.1286420683680087 -0.945085864340195
608 0.5175165424676831 -0.7957579955676468 -2.07438453084851
604 -1.3475100317761854 2.188960533583138 -0.334582182377028
567 -0.7101871314329642 -0.562701692386284 -2.4473155746190813
571 -1.1711280645974076 3.3716221016849546 -0.37496957856472224
609 -1.0698393851714387 0.5834774486884624 0.14968513131631847
612 -0.27255067037543523 -0.15634114383291836 0.9037752317308844
613 -1.466614976012389 -1.382417384487139 -0.17232562639274468
575 0.7109623088368913 0.13820038240877278 -0.567308970940039
617 -1.40571936367228 0.18913355936693 0.9547322876867972
616 -0.27583529049560646 -0.13036849922913313 1.9680279527830402
620 -0.5440152745179306 1.6664470088461674 0.2990368413161807
579 -0.341126135431614 0.8411863613905868 -0.35414302548395465
583 -1.352108950198179 1.380290186419967 0.1473959249815006
621 1.0177803166793105 -0.47685608652546385 0.5642796783727179
624 -0.6985738630926687 -0.42365354780850845 0.9262222330602679
587 -2.0398770025091055 -0.25539894408030694 0.6600616829570705
625 0.9073686841528228 0.13553140636508795 -0.4704328182744827
628 -0.2728530075725515 -1.6713582433520198 -0.7743444029139561
629 0.39706500093856234 -1.6583923193490353 1.4689931654796253
632 -2.064731377826893 0.7736956387995564 -0.08396011021798423
591 1.1024226741641043 -0.05819509514339327 1.2845875413110293
633 -0.7064919112226397 -0.8558830720438071 -1.337407344311271
636 0.29380355281965886 -0.5662818169060796 0.6805060244604173
595 0.5814985236981113 0.7269999449948428 -0.3657487009574681
601 0.43448252701187656 0.10329253272875545 -0.1809878130928223
599 -1.5378858265196638 1.777607227682019 -0.9612987632408276
637 -0.14400832849257267 -1.720955600685629 -0.0062909552646309595
640 0.22991850374860592 0.6997518956691057 -0.600405868965233
602 2.2309598744640757 -2.475107884085248 -0.2926734721584673
603 -0.17243339529916943 -2.7312441387706663 0.6793371071026038
645 -0.3786064859959671 -1.5876717337591164 0.05250350750970019
606 -0.16662072253537175 0.2532902680210688 -0.7218311208330984
641 -0.2665161188224044 -0.285458230860874 -0.47384206595935063
607 0.9471240671943899 1.3352240870071084 0.7684788552710087
610 -0.49596490750861594 0.9742757325433072 0.46275240940515777
611 0.36308823567225385 -0.2980254575730456 1.165055331854174
649 -0.662415698392003 1.5331032492748917 1.3684421603027301
653 1.063045269496208 1.2348958901720946 0.5392114941605114
614 2.0996902571251264 -0.6591537190216195 1.2643305765465438
615 0.2505952368594897 1.4296345743453356 1.1827946872400312
657 2.2809305594327123 0.5708945678776195 1.1676500353385726
618 0.47071187664220326 0.7105902315805592 -0.12708661505375984
619 -1.4563849318196151 0.9805858347956893 -0.8123200754534856
622 0.9319503001662068 -0.33820609533863544 1.017066410438722
623 0.3287033073300572 -0.06154810485402401 1.026561269375419
661 -0.038307299967015165 0.20826787369371835 2.0565659501697127
626 -1.857035596032525 1.178272366383595 0.5038886158922412
627 -1.0624072727209 -0.5449471050371172 1.2493685649512474
665 0.5597471055415176 0.24631199705435206 -1.7654012645186554
669 -1.0527502047887736 -1.49699290492053 -1.3733303553327654
630 -0.9046007472008986 0.5534909227053013 0.49713053823853154
631 -1.0238143942459925 -0.32572826206635397 -0.23393199770274897
673 -0.5312291179804438 -2.270921123469348 -0.9889201863999156
634 1.2070989842383726 -0.47691019960453584 0.5938226451531752
635 0.6085291377217829 -0.9336463856663628 -0.13643344075203592
638 0.3512340623907134 -1.316170523388268 0.014669721240864093
639 -0.5924565610865957 0.09126538531893096 -0.09136068094243678
677 0.38469669946409996 1.7458454666813596 1.7047042397797239
642 -1.6018287764716053 0.7741567728787071 -2.0971217427885533
643 1.1280601298836517 0.7145898712729625 0.6035594387599497
648 -1.6526791325212342 0.33219796227168524 0.9413382546981521
646 0.14835208507974265 -1.8901077799020018 2.322742683906944
644 0.675463651292495 -1.5339531237418824 -0.2956993851514203
647 -0.5960582521424925 0.6938808377833116 -1.0490344334242792
650 1.75488940153681 0.5089960131621297 -0.8464415535092444
651 1.1706189819562267 1.7207563170215323 -0.00626490898474441
652 -0.0865881927517083 -1.7707749972229894 -1.2532355651120304
656 0.45140854721910817 -1.0828272259176503 1.3728265280722785
654 -0.6707966750247981 -0.8465060867727014 -0.3258532489813505
660 0.21088918669408827 -0.1548031652269245 -1.0390601250524794
655 -0.7230189683807017 -0.2994413171120672 0.46025267874819237
658 -0.017190373409640806 0.16365210885860076 -0.5523702628862646
659 0.08217222844232416 0.2888542238713262 -1.297494940493212
662 0.49396312751280935 1.4719757191207987 -1.3535051604221453
664 -0.7593169668951442 -0.9649874936826778 0.7018008388222294
663 -1.771208427741341 1.5768040970652712 0.6533160019291451
666 -0.839424886075053 -0.26772193374457876 0.26859481230954696
667 0.9294175293548871 0.37321174987606126 0.18402165273936047
668 0.17831994940341275 0.5590588854527432 1.41267058050513
672 1.224957025464516 -0.5363665098765359 -0.5812442702119001
670 -1.3681691187139162 -0.9747153273817353 -0.9445517967758675
671 1.679619666500569 0.8561551859509899 1.092863378269671
676 0.9853364766160955 -0.8953827374681526 0.799838113471303
674 0.7702527153661507 -1.884397776999421 -1.034750676169987
675 -0.8850557213944517 -0.3380373644089212 2.590114642974777
678 1.6383404652797207 -0.4219781507281652 0.5694555180133912
680 2.1740724360112025 -0.165686534596429 -1.1696960922859025
679 2.019186867846955 1.5324699657371792 -0.14054195103023878
685 0.7217732817977036 -0.7712421786063535 0.434606578802105
682 -0.4507658390809183 -0.5188301870027784 -0.18222054030094037
688 -0.1846669065939734 0.22235303242537366 0.8402131537522055
686 -0.7914315999901363 -1.4444202951289118 0.5379130975695482
681 0.8182144952307174 -1.7925193856526644 0.09428132667633617
689 1.2463182832761304 -0.4070431708554988 -0.06641560704939714
690 -0.8535201335476668 -1.3335882691266372 1.2701916121541488
692 2.1940618414257225 0.4119067345303741 0.7574156483379431
693 0.17498846674142116 -0.09109460186969077 1.0924274874863125
696 0.13517839272083088 0.4455488137143471 -0.061549399709269106
697 0.6600381538787548 1.2227164386093692 0.41243720706850395
694 1.1088652396074599 -0.2806859405534148 1.8545051866034883
700 0.3804160345018966 -1.0962894739931377 0.7031158647303963
701 1.8006935898359397 -0.5187664927294764 1.1626264602116538
698 0.7460393542457278 -0.7249518726084188 -2.7082243124529572
702 0.46798955226111305 0.964759279857519 0.87145798447875
704 0.9511463321231832 0.21940603498346917 -0.180533156137472
705 -0.7463031231335046 0.877548146099882 -0.3142534272883435
706 -1.9267383291656963 -1.0022344246102433 -0.7330681859692956
708 0.4761996686854957 0.030150601774560276 0.8522680924690227
712 -0.4213513922142795 0.8887916210191288 0.7943806408911044
709 -0.44589880601773857 0.7765337021635393 0.3438594230246523
713 -2.3400153962359656 0.6423933657213791 0.09261955160100653
710 -1.4820613252003811 0.5828295032387388 0.1606743683837154
716 -0.6737007314433482 1.161213758672635 1.0887140959754755
714 -1.8173831569553056 -0.530270086130678 1.8710068391266002
684 0.4595395849262188 -0.28452438204267316 0.6449632296867964
717 1.0058301324370549 1.5881015791371593 -0.1672585341686013
718 0.5065522538394865 -1.69101440136354 0.23651355595309295
720 0.5377568156940612 0.6351512000138463 -0.08723126934365515
683 1.3524079229308101 -0.9661852257044036 -2.490655862851578
725 -0.017949415350936648 0.8949393345173179 0.26954456276096445
728 0.18169484721703377 1.4372856926557727 1.438260990030121
721 0.9995550217300914 0.1595169008041154 -0.7499220818099872
724 1.2063441211750823 0.7646790563681796 -1.1953240276436432
687 -0.432033085142121 0.16300209653919864 -0.8963873725934942
691 0.03967802518963671 -0.2124472903952493 0.0745745078610338
729 -0.3351763885180502 -0.9962405430943446 -0.15107957391884028
732 -0.5436895175923467 -2.101051440784311 -1.1498945368205613
726 -1.2198753663615736 0.8676640479982173 0.08563161904949904
730 0.8544606350378883 1.106010581170958 0.4231513787209619
733 -0.26000856956092455 0.1469159382532833 0.2408276078262847
736 -0.3206389035413942 -0.18568590930375328 -0.6147756442664968
695 1.1071291106851866 -1.2163259446348968 -0.9722122415548076
737 -1.1760200613174794 -2.6874471244885973 -1.0954732078606881
740 0.5709643626862861 0.8507958016128779 0.33164459157673587
734 1.0651677249702194 1.1244875682254714 1.6600569261170677
699 0.7677461897062344 -1.1358750505114266 0.8073766101851715
703 -0.8182045290670332 0.005611992351432086 0.7894020250571214
741 -0.04552921932088541 -0.8685694885163872 -0.2590972207537688
744 -2.111501794679903 0.4592088193685199 -0.990854130221574
738 -1.9710722598455324 0.8738850668312387 -0.49318057111572616
742 -0.6690763985997568 -1.3391737993139685 -0.20714231760986038
707 -0.09463777740123176 0.939443225577609 -0.4000517716856909
745 1.7756290250907378 1.4550940438449909 0.4133489444300877
748 -1.4826291555342033 -0.7820737082675606 0.49551436526179593
749 -0.08674826281492534 -0.6114276832885265 1.0054086350120581
752 -0.13428120344337485 0.018184083643200975 -1.030976879685609
746 0.7393781902750404 -1.6618987621611239 -0.09897479829752068
711 0.003840559309549686 1.3306669720547482 0.22268661057344274
753 -2.1186955566896897 0.5845617231967866 0.3666335083750633
756 0.08498427222249937 1.2369353359817248 0.10613117779648155
715 -0.35122830600959165 -0.8759094534516297 1.4078614370618472
754 -1.5319923628563985 1.6868058456544102 0.43397597697460033
719 -0.3418966138860736 0.9882450138327451 1.5862809958855786
757 0.19913229743266733 0.26582165985308454 1.5650062722547526
760 -0.23492409510557635 -2.114727386174463 -0.28867198901090574
722 -0.7446876206182804 1.079108498076652 -1.4968779980064997
723 -0.9242476330412378 -1.8249179180995354 -1.2101862537306598
765 0.8087056683444991 0.15603722938220072 0.026476713389264526
727 -0.2603890795825257 -0.5867604795460771 0.42128363314912215
761 -0.24025517223996817 -0.26882945609863207 0.09045638427813815
731 0.04428610010313568 -1.0529014575208284 -0.7524633991147999
769 0.39851878101878657 1.0821276366271193 -1.9136488241714475
773 0.5332285094715024 0.8664753403161686 -0.9312746377063186
735 -1.4092531168045763 0.35820196778667424 0.37921186938943374
777 0.41844935666874644 -0.6451229465641712 -0.07306418989188888
739 0.5126977588040529 0.6931957917938141 0.3119182592640974
743 0.1537339250612071 -0.4220877370048946 -2.079012879510144
781 1.89831396019669 -1.2933232710219484 -1.2320100363496482
747 -1.4161867789279046 0.48110435985326616 0.44114334564818497
785 -0.8680798657399835 0.8729366256465059 0.7047706937144278
789 0.4564146058965115 -0.2177372769027392 0.36863448421642425
750 -1.824501892475106 1.6463504256474495 -1.3366330424324044
751 -0.25981081090966646 -0.649193270430882 -1.320009397445851
793 -1.0347726185989796 -0.7142991424427967 -0.3198774308865171
755 0.6731450697520861 -1.4329672302689482 0.9837292323325898
758 0.192429179887101 -0.5370532093162033 1.396679947397611
759 1.0241997435236643 -0.7587092918934998 -0.9739249469489986
797 0.2527470984303951 1.7633678111226223 -0.3777752240342818
762 0.06231855031410871 -0.026762356552207444 1.840823196638281
763 0.7965325309130769 -0.01797260852357872 -0.05405342086601611
768 1.670578999635352 -0.6799572128338573 1.6032983701254162
767 1.3659287832655522 2.2175447893597653 0.9082646607745962
766 1.3004474063500708 1.0607516524847276 0.3596824991343246
771 -0.08094122407629074 1.5892302762228718 -0.4780057362959018
772 -0.7817993028224919 0.0812472804831544 -0.7087955319062238
770 -0.6363338938125328 -0.8629439496652053 -0.593101580543458
413 -0.43446690625175305 -0.01767536911946999 -0.6292074555864017
776 0.10240647327026119 -2.238875685233691 -0.6590432483572667
774 0.019066938761633852 1.304466495287863 0.26585857943952845
775 -0.3478259228558589 0.45678516024298843 -1.9572988319928564
780 -0.4226628423442203 -0.5006151921124735 -0.7850810365145315
421 0.40053319027222595 0.022280118772081504 0.09000623537507567
778 0.739763507729335 -0.9176369216413468 -0.7768370530800156
779 -0.6931506301842828 -0.1268970869591845 0.07423596068345635
782 0.10056718571960536 -0.2841238398735894 0.5487212091680038
783 -0.1101529031226417 -0.6955780564723907 0.9423498045849469
784 1.0761973554707658 0.5351935493528673 -0.3219553150158092
425 -0.038711372750782486 -0.787104824673339 0.8978686276875233
429 -0.9733126188189242 0.46567517704372363 0.008867418552833734
786 -0.7196146637266186 0.7396292028134182 -1.4723699125292034
787 0.30391215162630764 1.1444046541940716 -0.7346265589678987
788 1.5619542761035539 -0.7013420478875606 -0.06516517110329996
792 -2.235281713914535 -1.579281294769545 1.3024290558349578
433 0.12635453821222425 -1.8200286845020701 0.6329519342737404
790 -0.5068200213912594 -0.6330220901021789 -0.30758006551948136
791 -0.24923275213321006 -2.1304093947668146 -1.7234137938762604
796 -0.35472350579142925 -0.2554219856387223 -0.3472878073155498
794 -0.11469891609787315 0.9361770307838289 -0.2537157984730644
795 -1.1784063444609263 0.04631461140241149 -2.260570736586303
764 -0.8558106386765186 -0.3024325095646621 0.40642738091112535
798 -0.06800723557309155 1.2842923209964257 0.03146611206554243
799 0.10036134187829136 -1.279099312196077 -0.8484779357663237
800 -0.3208693237392702 -0.3046228225585601 -0.00024035902693622855
802 -0.9895569764658292 0.9363050552989521 0.2929077453439773
808 1.4250012614532128 -2.3730990693787106 -0.38186620341273003
804 -1.3419829246598287 1.0691908734318123 0.5116200224227777
801 1.744304050961243 -0.5960031369724944 -1.1630886164712573
806 -0.013221158157401061 0.12394975968523352 0.3718366987561937
810 0.3143563584523298 0.9493459968798241 0.08511576998377492
814 -0.29821798938253313 0.22482939391923662 1.6026144372576197
816 0.5030916968304789 -1.6338741100231857 -0.440529235221136
818 -0.2766635522377281 0.18314942669565668 -0.38640789000932074
822 0.5991996919156464 -0.7429813810902829 -0.3859870285210149
826 0.168134614220192 0.9387690778903026 -1.3415798395620933
830 0.3270269011010927 -0.5190248826013715 0.9871903418964968
834 0.0604587289709896 1.6564603523019763 0.3150227453417937
836 -1.1858538889142884 -1.7207712638789223 0.6431730512342053
838 -0.13998466920853708 0.31348635153012866 0.05135966353997204
837 0.8894242570960234 -0.3822121386679762 0.5228298665037647
840 1.075406785403647 -1.2375553899418146 0.9049187727566487
845 0.4235539322451945 -1.107550490948878 0.10696555305113567
841 -0.3473683038132307 -0.17773919814895484 -0.028441988812833992
844 -0.633641254379909 -2.4769972392981603 2.0551156376241146
849 1.5107693588042723 -0.2969235996267658 -0.2042586393398453
846 0.10618014940147512 -1.7949383884380075 0.7595161359618711
850 -1.0377437245229755 2.6404504380581466 0.6980612648889463
811 -1.017848567440965 -0.03486638543525941 -1.0746000839725525
807 -0.34176937255566825 0.8279170409584541 0.726050751828154
853 -0.1846341645706914 -0.5096303583246825 0.3906194300364206
857 -0.10400063385946288 1.34227431185635 0.8299276263318155
854 -0.08589344763811478 -0.8712240894589425 -0.6863448325137911
815 0.30912306474372653 0.5645574883028505 0.8688074031624027
860 -1.6376898768764672 0.9645738036963335 0.6971944694384178
861 -1.4938816085164286 -0.6131904200946655 0.024709171618969107
819 0.7502209470612077 0.6394855739742192 -0.5237472655388875
865 -0.14632662525426451 2.005204686197999 -0.6374426801234001
866 0.15768385836631518 1.7538750217331391 -0.009104013235565141
869 -0.21755642738831696 -0.7918210467309154 1.9773748984504533
872 -0.3178580614676215 0.22264458369852302 -0.31306337018946623
827 -0.4009903637196208 -1.2265599964501834 -0.7912768224507982
868 0.8076413954448631 -1.0902740729630565 -0.283176075580685
873 1.011836218624513 -1.3695961332207445 1.3597117204258555
870 -0.3694340583536158 1.0189474932922984 -0.6900000116267397
876 -0.9451523616041497 -1.1532388692056768 0.2295776815794627
874 -0.5537231603154605 -0.3356046997425126 -1.3370770990938285
877 0.032324384235222235 0.05154943003028009 -0.8074938849164475
839 2.937737361566918 -2.0308130358512324 0.4704962366080244
878 0.2799079236994044 0.5600681560404964 -1.3452981978478133
842 0.47907959650389864 0.13777553254696595 -0.8937499366377343
885 -0.48675043124013123 -1.462331505313637 0.08865147666267896
881 1.7160133896972172 -1.5759757270442711 1.2908540608870054
889 -0.3019910744231786 -0.6325070142901603 -1.148744456787507
847 0.40752394914602835 0.5209745626872168 0.7857946041777986
893 -1.8146632927555537 0.03531026217177739 -0.7254973725638589
897 0.473949655587393 -1.7682665133658382 -0.20913947185850207
855 -1.5715903009588479 -0.22439724759563223 -0.010663899306982014
858 -1.1771743990284416 -0.6783774803326257 -0.9449393401136269
862 -2.3429321235309404 0.5123721403173864 -0.8291472195154216
901 0.4458387682870192 0.16831606921259962 -1.4371846735338603
859 0.2529757225902256 0.21759549910425358 -0.7141653532828007
863 -0.6786257200626004 0.14053304851097773 -0.9820254960197222
905 0.11167026727457409 -0.16903751869054512 1.4855789249914135
867 0.9026618041038593 -0.3393955127089001 1.0489710245944728
912 1.0529637629594273 0.5498408755158836 -0.2633508617707481
909 1.5045284759538384 -0.16606250862388724 -0.5894005031153811
913 -0.029538999995433735 -2.270333267169363 1.3075065132004233
871 0.3117896629239941 -0.19637777326201966 0.9860289663524622
917 -3.22857478618824 -0.6084618902150749 1.5285798725079316
888 -0.6920769711751512 -0.056681295014454715 -0.47357582985212393
882 -0.6247871505056891 0.15144010503126532 1.3082057030280676
925 -0.7993405708543001 -1.0737353771958522 -0.8418904202864362
886 1.3992836288168522 -0.1280530140699658 -0.49059113226860096
892 -0.4556185753200576 -1.1229841887691896 0.20349277146178504
890 0.2258588081216549 2.113594821455757 0.12098314366575398
929 1.5795053985842575 1.12282115710156 0.21236694286617003
933 -0.4129494885021236 1.2313775516608814 -1.4154887219677588
894 -1.2867349042798693 -0.7041879544133168 0.013680315752974846
937 -1.316386882784095 0.48960765759791225 1.4810705752494602
895 -0.3053519160999747 0.3440144291406201 0.14900414709621282
898 -0.36582111362648373 1.0749072439774257 0.038931335014320875
902 -0.7386732866721545 -0.33757742200677093 -1.0337768571943877
941 0.1939361957857464 0.11609839415628394 -1.0752613828812019
904 -0.926975895462247 0.5659504583521481 0.8601095160683938
906 -1.1225067486641458 0.8063237224146698 0.28486219392629236
949 0.27974786168185284 -0.924997469927735 -1.0821099319915979
945 -0.6401168089194871 -0.7657915032993575 -0.5476575678941505
916 0.05987201178683713 -0.14722932588105878 -0.8595509186518886
910 -0.10332356188959972 -0.7872832691369369 -0.4362956042590979
914 -0.12048963849960571 -0.7930387680163106 0.8353715198183308
953 0.8519157503429242 -0.3880372781686461 -0.7182893269457377
911 -0.5525239291504148 -0.753542071165494 1.7607501988181646
921 0.3511408879722737 1.5652615451283751 -0.14146000854521815
915 -0.9093083148145463 0.7357740023206941 -0.6864127159711167
918 -0.867150242318225 -1.9644737515370794 1.1700693606814427
957 0.38838066188512044 1.5105389418517914 -0.36586070233691453
922 1.359463702517949 0.37490368094163834 -2.7022340609262567
924 -0.04682550225139891 -0.2650342643686733 0.6229571141161026
926 -0.05040400064932682 -0.18693748316930753 -1.0116347964344319
930 0.23540480550978407 -0.3688968027937937 0.08403278219504019
934 -0.6065898904103709 -0.7663560814288485 0.2658429499105334
940 0.4393495982123584 -0.595582804746666 -0.9593456054279169
936 0.5111635967133278 0.20774756834779146 0.004222030649131743
938 -0.429312317048032 -0.4452275277894086 -0.3494699210679107
942 -0.8941191253718556 0.2805387798939453 1.1267551559072926
946 1.8828210803761536 0.8716298098985122 -1.5873674834330327
952 0.08076234793860021 -0.787519439727109 -1.1622908908702199
948 0.4625535507178973 -1.2714075219102408 -0.4090375678800768
950 1.0910248020047841 0.1621566298626306 0.7715038360839706
954 -0.49794627137123376 -0.13693626922485383 -0.2453994523539574
951 0.7926888741829531 0.18896583239572393 -0.47286095081020285
958 -0.2765011022760732 -0.8716757514199273 0.9602495438387826
962 0.3998877424028601 -1.1688469589999706 0.41973322982948413
965 0.09422168030979974 -0.38443691448903866 -1.5307499658595336
923 -1.2329787611287506 -0.31941509599626067 0.7479617617993182
968 -0.4504151592365399 -0.06677347495135018 0.07539491982612573
966 -1.9551033439356955 0.7119502820315373 -0.3422147831915271
969 -0.6200725347188091 -1.0975759854212404 -0.2604464151290047
970 -0.7166863795197714 0.4856226467512033 0.3104346922777281
973 0.5338800644952013 2.6635135302200896 0.14372840002020817
974 -0.907171853980463 -1.481219970412747 -1.6225039178556298
977 0.02075462637769491 -2.3625790577110264 -2.975474602992839
980 -1.0026056350438697 1.7674538967582267 0.2116576090781382
943 0.9178512224934665 0.2776834416044736 0.3638465816555716
978 0.6447199731912553 -0.5099539721089026 1.6394134219922791
981 1.3307059088703708 -0.1870330763951507 -0.19182423286898656
982 -1.1182981058446395 0.27048391255908794 0.3835794744027831
984 0.5436681796490646 1.1716703333872247 -0.6402091870162583
985 -0.0785023721453233 -1.3720736787702579 -0.8372476950806822
986 -1.1893788774139926 -0.652687702644696 0.6948912478099313
989 0.6255274508376999 -0.3939067487814327 0.11486649962770316
988 0.29418915294747183 -0.20365169055734259 0.08049587946375242
992 0.04782307521532878 0.20581808491267883 -0.10644398782043744
993 -0.5160836219880335 -0.6205652652543332 0.6850329442188601
990 -0.6401615932834204 -1.620233915673357 0.39209673972606335
994 -1.868035490484234 -0.6839929409936008 0.7083004915009696
996 -0.22721205669504016 0.17473275297509344 2.2019922979590643
955 -0.02188567593974788 -1.0013438888816253 0.5059529282890528
961 -0.49551675291541103 -0.08137507261903533 0.19517037198102188
997 1.3703067616657796 0.574112938127116 0.514291324944965
998 0.7660148389165792 0.9408776500762519 -2.3852359350033727
1000 2.5460779391673656 2.0471337456124394 -0.6700960967573414
1005 -0.3092711910399282 -0.16689318374444106 -0.6494416470888827
963 -0.8453489870534573 -0.8514592223637312 -0.6465966423126999
1004 -0.23931702078598377 1.7162355819852937 -0.8777150744609592
1009 1.8076233786069562 0.24248787446376305 0.6544693689890678
967 0.03928339244614906 -1.4482302263591689 2.7819747061711193
1013 1.5787827323221924 0.21724608368621026 -0.9576675240031913
1017 0.46923336618635203 -0.7904044332676547 2.484303886479765
1021 -1.8000760522888641 -0.05575202103298993 0.5792890251474591
983 -0.018945972286673426 1.0203785087771782 -0.4049555260150552
1024 0.6628014382605292 0.4611619016126425 0.33367995133750666
1025 0.8793574607624647 -0.7417236060110672 0.506418311077092
1029 1.3525567632070181 -1.2237413383461044 1.8284605821312534
1032 0.3117454195192489 -0.9803390758326854 0.2640672980343196
987 -1.6140569117878414 -1.095053420088712 -1.7432310379273583
1033 0.2893236036356486 -0.09133677994605945 0.2986375315665
1036 0.3654524197546545 -0.20427680852760735 -0.5985314181311957
995 1.0244682997052847 0.8408403533505318 -0.15707378445618625
991 -0.12625659477732526 1.154006514288623 1.431642249757286
1001 1.3306084442549593 -0.8931767012263321 -0.6927008759140233
1037 -0.5030820688700892 0.39173435323401884 0.5508733562153485
1040 1.549576471564881 -1.6483969457605374 -1.0864157313270673
1002 -0.771234297804189 3.014712349131459 -1.0418842302912346
1045 -0.9488564985188281 -1.1966938567949639 -2.2610163740090226
1041 -1.2488410941176782 -0.45455578093764937 0.7014631610740283
1006 -1.6263837735458126 1.0706110780401084 0.34617592958933396
1010 -1.1431832598110496 0.022831256427526283 -0.12817271341253622
1049 0.9374966213967981 0.5585439133549328 1.5493044598736792
1011 0.4763518001074304 0.07215717085695889 0.3241497816620487
1007 1.8111606274766698 -0.6486146886674677 2.3283647955821962
1053 0.4385435342783566 1.0634933413933465 0.7534659109101347
1014 0.23908436778417316 2.129654601314602 -0.18145783976421578
1057 -0.4902474637829824 0.3628335548429624 1.4542721209783922
1022 1.255372907094429 -1.1087351529890765 -2.5881780898372946
1018 -0.026425097354374677 0.8869172905114545 -0.7418160511411276
1061 0.6212471005229475 -0.8277186442892338 1.741536046228818
1019 1.3577452155807475 -0.7429597931703005 0.6524693615987979
1023 -0.36771887510571444 1.0232907876447401 -0.971801746332073
1026 -1.8095092399688335 -0.5937104105876988 -0.08981873258854302
1065 -1.4426879148365572 1.4037105608867162 -0.40432755962456973
1069 -0.8009916141551202 -0.6529756512415571 0.16931932026021448
1027 -0.255003191509761 0.556004075338264 -0.0661209280379758
1030 -0.4463607930205336 -1.2089801607269466 -0.533119006770949
1073 0.18802418763500792 -0.18604274584564856 -0.5327490894978528
1034 -1.1842089865872303 2.807563634661259 1.2609827574753103
1031 1.6501038854194698 -1.7012277795425716 -0.7525972846901378
1035 0.3312233771131562 -1.5229035219864708 -0.5392410996383505
1038 -0.3467809760049404 -0.5302087456162999 -2.030446043491163
1077 1.2241631606672574 -1.7662034449887385 -0.9793403912134203
1042 0.9371273206283364 -0.37263850534534493 -0.7802854052113972
1044 -1.27088225305572 -0.34716385840672404 -0.39955280841195284
1046 -2.025262426159542 -1.3311425730353101 -0.6942175552450742
1050 0.34076600434122395 1.5409197189478874 0.23026761566029175
1052 0.33258439067933454 0.7278217765367178 0.6767348579540126
1054 -0.6463463349069679 0.05423851049778536 0.46235679899036
1060 1.5841275333570755 -0.5066373404501041 0.04057402464228916
1058 -0.7689998935436818 -0.7932722678878269 0.594896004342722
1062 0.19918996797307192 -0.8635383443957448 0.15522193904046797
1063 0.6460554470163078 1.0108902651672624 0.5214053687372274
1059 0.9082192610777294 0.035142059470953474 -0.9412752070976708
1066 -2.2380712495720605 1.7730413186797624 -1.123164279066966
1072 -1.4291142481131744 0.7210693522467762 -0.5744005148540396
1067 1.9028379487019242 -0.09378599670555836 0.18509013241385422
1070 -0.6835648207329538 -1.7149362789915232 0.28047497724643067
1074 1.0388545059348673 1.04917502290331 0.521548351425893
1076 1.5527863395224704 -0.5326561425359431 1.8622511806781312
1078 -0.3807063901934993 -0.29087039168803164 0.12084416509762634
1080 1.3371672835574517 -2.2047373660426777 0.5410608903305559
1085 -1.286588169604249 -0.18557668812127553 -2.2348004753257458
1082 -0.7404687373264789 1.0456829566285966 -0.011246200971617649
1086 -1.2986698447311071 0.9591466495806471 0.7560630155411556
1089 -0.8114304150022926 0.04200883001318092 -1.4968294880944792
1090 0.15762816422275117 1.295143527186814 0.20032135994698044
1093 1.281241628639095 0.816618295961017 -1.5951416569774854
1097 0.7256059257930444 0.6722629565399156 1.0368202623830984
1094 -0.818098225872297 -2.2174732957898553 0.11626911707286396
1096 0.24148055258110715 0.20471938994833364 -0.0664369927209113
1101 -0.7719769646293199 1.370450853568198 -0.10189657185154812
1098 0.026250510593780384 -0.17807539089388025 -0.32965580750293466
1102 -1.59900548922961 -1.746088714169065 0.8791858697872519
1104 -0.29759742994551114 1.9450573683883945 0.32145777738175246
1109 1.093810624646804 0.12211495171416008 -0.7412061185605404
1105 -1.2618988550520958 0.2817592375106985 1.1028766999463677
1106 -0.2895444339363729 2.0208350441630176 -0.738215783482324
1108 -1.0665809138479334 0.7360594020906094 0.6340915444131582
1112 -1.120554388242972 -0.7209568537707507 -1.6112684916032671
1113 0.8665900862439322 -1.4810520715400213 1.1812610663346323
1110 0.6200412945018116 1.5124189401482122 0.4439565278764244
1114 0.30616398571720504 0.36978264187112975 0.34569825503597307
1081 0.5654285875807211 -1.4179211759479293 -1.2045917602473162
1117 -0.6131051395153464 0.9996744378342809 -1.5421589065404535
1118 -0.4668435683252094 0.21090907190647995 0.6241082546149568
1125 -0.6786797387232819 -0.7864318333946383 -1.6212297150927761
1128 -0.4295789888751692 0.9950912744381056 2.414789037357712
1129 0.9670444930231856 0.0036074237740141677 1.4070181118756668
1091 -3.0051763561490037 0.6690185368483045 -0.29311083677470806
1130 1.3442535941019491 -0.03819441850111528 -1.1131793178170384
1132 -0.48086415546154965 0.21602854793652898 0.0034128664678618136
1133 1.4389607160053233 0.8827071108469354 -0.2300931700961156
1137 1.173120171657151 0.22505391780775102 0.8978285288830559
1140 -1.3249992751195685 0.4267242567598481 -0.02870779677134996
1136 -0.3752568062654367 0.9783844588568391 -2.075470911817525
1141 -0.360511520332328 0.7945800536180644 -1.5417790769423918
1144 1.0865855881378617 -1.0420658795323745 -0.944419648225431
1103 1.5792161403074023 0.24493623309374057 0.3701338201461061
1145 -0.09519586281345646 0.70477985506434 -1.3295280830481226
1149 0.6729852757444915 -1.2337122963602274 -2.678967998633646
1152 0.2652127203468963 -0.14299021012781557 -0.26418438456635995
1148 -0.23933195129780863 0.572383330350437 0.1303879280739834
1107 -0.2917343584476409 -0.9412347017760011 0.5218767004843312
1153 -0.8908166899217858 -0.504245573930541 -3.0716822175265874
1156 -0.024427388106445312 -1.426036695516847 1.2833456008218274
1111 0.8132819509694531 0.9742067739064924 -0.8472259797652681
1121 1.85576685739146 0.3479053039995871 -1.3814747452455112
1157 1.3439166282744461 0.9628692431412443 -1.0230747413043062
1122 0.6373292484159142 0.42680813913254606 -1.3648606299523232
1165 1.3494943270098954 -0.640454520432948 0.9426100817467454
1127 -0.2753092865989958 -0.26819941159583466 0.006995850130186084
1126 -0.7117772905738674 -0.20862587306851885 -0.033774885473110534
1169 -0.7837623062239352 -1.537639185653713 -0.7766098425673768
1131 0.6857613049412283 -0.2665879231175565 -0.03398688899091844
1134 1.9211242441838692 -0.7914299219824849 0.765114837841989
1173 0.18011344409517732 -0.29651673816699475 1.032587422322515
1177 -0.4638197839197208 0.6839815452515335 0.2383236177139654
1135 -0.5200215934492546 0.6423885582799778 -0.432622620655252
1138 0.7624285489432839 -0.4980150701985135 0.4890821774559552
1142 -0.6768201966939426 -0.17018955361762558 1.1453450290808023
1181 0.5291485472684464 0.088685514164403 1.3520066328989382
1143 0.12347790428022953 0.8937412524182586 0.7353351128479518
1139 1.2425256131940343 2.1097014190028807 -0.24520015912873439
1146 0.282071595252209 -0.8402451565887835 -0.3675387526328139
1185 0.08660163814324735 0.5725494529465615 -0.16706659882511185
1189 0.43270765743986545 -0.1171406904727672 -0.11699692561977512
1147 0.3807539934518006 1.236721631098693 0.28201549380750496
1150 -0.6873767314913325 0.7284138534390981 -0.5206035612642735
1193 0.6676886081681838 0.8817531333821845 0.1264578556016772
1154 0.21055626588963594 -0.5253265374047511 -1.0433343686500682
1161 -0.9126382322501263 -0.5187867545431035 0.5270711693111284
1158 1.2207642144233513 -0.5373868005600516 1.3533894947845926
1197 -1.122213290564062 -1.0969892748755592 -0.13513073505277912
805 1.1219617991082562 -1.5769273673616278 -1.0669677199166498
1162 1.4284427943790525 -1.413151500872559 -0.6888223581280828
1163 0.6958945206964553 -0.7421465881908074 0.10195184722913586
1168 0.43572709053788805 -0.7115512324030344 -0.47062684852564773
809 -1.2218848225773298 -0.1397513961139718 -1.4629033586934408
1166 0.4172685483143082 1.28946944150893 -0.15266124113517518
1170 0.6742376314782698 -1.2881945239784183 0.1991388483848794
1171 0.08709607066877594 2.1460613220627676 0.9286662438707475
813 -1.1964498072635865 0.7630696388863222 1.0198305692298153
817 0.4940332247513217 -0.04561781444195867 0.6432259857500002
1174 0.24637588027718382 1.0911885832802084 -0.5126583320420497
1175 0.22424051833391012 -0.5495472610942902 -0.07412830243389065
1176 -1.9448544679210757 -0.07477444703364408 0.059219976261304576
821 1.0078132393823642 -1.1482927532070555 0.2553706690817809
1178 -0.8768008810495821 -1.1016426773557066 0.5191216006725426
1182 0.34935824501896695 0.9835805287975525 -1.3387335632614985
1184 1.6046331662215632 -0.32531525607759726 -0.15624913691252312
1183 -0.29817577149862584 0.992500597997807 -1.3085891858795642
1179 -0.834374790040874 1.6955073484490204 0.48958314375535605
829 -1.0184791489980372 -2.386183733349347 -0.22503509989125686
825 1.3647010671649458 -2.4641559775053814 -2.0952606448200846
1186 0.11355709001134087 -1.8539027791876452 0.2587633854819591
1187 0.4690808871939047 0.6109820059668942 -0.1988302346282691
1188 -0.40314423549601963 -0.837151043179047 1.2952725148671749
833 -0.30948972550117065 -0.09108086579216636 0.16214059324706592
1190 -0.27542193930623776 -0.8339206203236104 0.6450623722949559
1194 0.5628700358256817 -0.0023677220178307534 -0.3887315242612451
1198 -1.4463295031526093 0.6107746554480723 -0.5527467727813793
1199 -0.613112718143679 -0.5789577010431369 -0.49640195904734596
1202 0.43432263088765655 -2.518924035011293 0.23641139573093728
1205 0.6390717459003297 -0.2764278385784855 0.8610575511656408
812 1.3761701072142642 -0.7220728377676582 0.45651430843927443
1206 -0.18077340251299462 0.4961509986826292 1.7775063894146437
1210 -0.6650925101117513 -0.6538511686639038 0.8004751720545448
820 0.034098477810197404 -1.3241172965626078 1.8738690531793465
1214 0.8465134920338789 -1.6572688432878044 -1.366439892800434
1213 1.2596999253643244 -0.5597240461746045 -1.3034210281763525
1217 -2.4171356603209415 -1.9349040871120775 -0.3386027841720735
824 1.3394412122700479 -0.9957082506461942 -1.1729499098388658
1218 -1.149261414089791 -1.3016858718310642 0.34565285569925497
1222 -0.8231937891456942 0.5040206144664758 -0.09593888610728088
823 -0.6026788894156098 -0.5207762342751413 -0.00972472307644358
828 0.602238664874936 0.013838111683390428 -1.1185711335000315
832 0.031835780856290234 0.7208275818463775 0.3150092728147107
1226 -1.637570025493059 -0.6094842351421231 -0.30008952474544787
1229 -0.8116696698115036 -1.0214874625440453 -0.12868815517543097
1230 0.6400990636552379 -0.7528376190051124 0.3818011098894608
1233 -0.9361744744211598 -1.4773246377310112 -0.1797354139180958
1234 0.036912887611431924 0.6123377163754633 -1.6254838199456487
1238 -0.43205856115357927 0.20455055514800144 0.7031852863243221
848 -0.27036474460135507 -0.6183357727189827 0.9620651824901227
803 -0.24419155713699878 0.7073396671413771 -0.5864371968190356
1245 -0.7297214298177658 -0.6384335152426698 -1.4905429248657855
1242 -0.5353706912616172 0.6459673049715651 0.648023143599654
1241 -1.1835208954685927 -1.2485190502500911 -1.0109597815386566
852 0.697029086411278 -1.4015212782766393 -1.4444694737530526
1249 0.29429613963342677 0.8967920315856112 -0.5588113235330253
1250 -1.5940074572333642 -0.1117775629485102 -1.804167182782759
1246 0.9037302241737226 1.3952145338043438 -0.9276101657755745
856 0.8549488524651802 1.1350734677574017 -0.6417945020659882
1253 0.048371136945220806 -0.7598636938344762 -0.981284066484923
1257 -0.3922625001008375 -0.6679821391075599 1.9770060072891278
1254 -0.42284787223233766 -0.44749712266916125 -0.5410506648332679
864 -0.16754933432187633 -1.5076012135060959 -0.38986887364855094
1261 -1.6818690302470043 -0.3173480893287296 -0.5108114907636679
1258 1.1089083120596839 -1.2371797576391563 1.2105220592917447
1262 1.4325795743782639 -0.8717447475438926 0.38377658553763416
1265 -0.2720466439698752 0.8889443541162428 -0.4159630020397435
1269 -0.6669031154502894 -1.1264474539440483 0.8982248175407787
1266 -0.19681758232499177 0.9634156083414952 0.46781938702625825
831 1.991964929538036 0.39940024882001524 0.6046962565193709
1273 -1.2611668517811039 1.0349891072165518 0.698647227291432
1270 0.10633613694603775 -1.0210697616371835 -0.5489876085628524
835 -0.07156979387739622 -0.11679476730969027 -1.4973359952193834
1274 0.3670573089288056 -2.0995384970991027 -0.06844588720002698
880 1.4201107405264841 -1.1042978737687006 2.487929613928803
1277 -0.06839320913544954 1.729816005722392 0.987386996078937
1278 -1.375637729151732 -1.5405717544783983 0.012179505853264466
843 -1.7728455529201785 0.601725482482427 -2.3208193392152325
1285 0.4130256605250578 0.7777515137583907 0.37393215844893846
851 -2.0088341261781735 0.43858490997023164 1.0725360570409603
1289 -0.8217367570242339 -0.8563806501017337 -0.6946298838448771
1293 1.189080008431805 0.8073965495645361 -0.07819944595761581
1297 -1.4093920794505537 0.8604221227719814 -0.5292640496869686
1301 0.42348685250343376 -0.33283629235204487 0.33657699903334115
1305 0.15672791790236565 0.1943211398636777 -1.0977305334208878
1309 1.5248387978171807 -0.027848570689295485 -1.2810595272880458
875 0.12100093739030453 0.9753023442734913 0.7233200135074082
1313 -1.3891371161547026 -1.2030633068346428 -0.31409588495700874
920 0.5732372128376102 0.5836417163370631 -0.23378726273362632
1281 0.4011225788478485 1.509607174705666 1.3566925194169335
879 -2.6647601812499704 0.028967711595850893 -0.14828699982789237
1317 0.31120712617986007 1.6144636700649353 0.43164490742225214
883 0.46948960580508364 -1.0567840079572772 -0.049506973484353047
1282 1.2693594549654963 -1.4639046491622258 -2.6870876523460163
1325 0.010264379881037783 0.8581829172470129 -0.39703970479002204
1321 1.0489477530995104 0.6366452798788709 -1.9202080396294694
887 1.3340652827011048 -1.3215123905187836 -0.19889526139616512
891 -1.2512333520650194 -0.16940829973825314 1.4991263295967723
1286 1.3325335191068968 1.1551656663814736 1.595133535402063
1290 0.3618525980978637 1.5826833305856483 -1.920757153259483
1329 0.5238834317951427 -1.3250255427517554 0.9251295508769855
900 0.6156801698810873 0.9535126044962647 0.5879248237730534
896 -2.5085031122958776 0.23572994471137093 -0.24176853173844542
1294 0.6179570713185621 0.5726843197820685 0.6663597427638155
1337 -1.865014357812827 2.3664605004213635 -0.17995974641602328
1333 -0.3446935380016459 -0.7034863334046704 -1.0579234358078418
899 1.5922020976043274 0.16600526154352407 0.15865819278851037
903 1.3367508502676402 0.8185629110768788 -0.36006229346085045
1298 1.8190466033429864 0.710718931538753 0.19585245639823498
1302 0.11924246126685373 0.13385646361183767 -0.5998017356873275
1341 -0.4336800601242647 0.33834949571841344 -1.9326777522853402
908 0.7510654225704663 -0.8086812771919738 1.2468048887121082
907 -2.2231551655691817 -0.024222955445331158 1.4453394102462367
1306 1.4358073871393264 -0.3569127323715823 -0.2785210458686576
1345 -2.4705663148079458 0.8774536280672922 -0.04798224902040256
1349 -1.9728557949580963 -0.027311346070575906 1.5908103337245643
1310 0.05121538841373915 0.10041633084999209 0.5227068559248574
1353 -0.3707467693886443 -0.14207678962039252 0.1543392277754706
1314 -1.4500200436204418 -1.1826668077286477 0.3846289479627757
919 -1.5324880777199947 -0.8409215613838319 -0.12801291140076743
884 -0.567666355165261 0.3845344760872385 -0.9405794105906023
1318 -0.27076024947556177 -0.4564411496392109 0.29459558586901413
1357 0.5608936656393926 -0.05198664438605646 -0.1480040566676891
928 -0.2557174930044005 -1.4531084150022824 -0.025019772330918632
1322 1.0418072016894127 -0.08987996405174384 -1.4420792543390901
932 0.10860448365742005 0.5112785070065502 -1.47912427597136
1326 1.7226171728619804 -0.7681281634973371 -0.4774033933303976
1330 -0.6822968163121899 1.9880961960598666 -0.8279479710217476
935 0.31664377181747466 1.2163035981054622 0.6991928529289569
1334 1.2614543676567465 0.5070567373325248 0.12714913451994656
939 -1.9428312030049315 -0.3456990442926481 -1.9150559165795835
944 0.6398499878986217 -0.1751873820143063 -0.042116832191737924
1338 -0.4920736139160641 -1.4382076532494426 -1.0735278775317991
1342 -0.16569219793330833 0.8246530145274543 -0.6056224855946557
947 -0.2067934365861573 0.15204915553184706 -0.03769820542371188
1346 0.6442252989631257 -1.3176922376560714 0.21724755465636672
956 -0.2344347192267217 1.1588646097742816 0.49776712671946766
1350 -0.409943358928953 0.9665407685435841 0.8265412748750528
1354 0.3481669357319295 0.16910101511627604 -1.7393028674566398
960 -0.9486005847251325 -1.1649487778660337 1.5551376411469837
1358 -0.5041600960634739 0.13244162445687235 -1.586182045289112
1365 0.4645768862518429 -1.1199803280974592 -0.06649676520182161
1362 0.3279441540966049 0.12578478012415795 -0.38396082626741523
1361 0.06761486723663288 -0.9158148459252854 -0.9860993319590452
972 -1.1310208219831261 -0.7270192586983272 1.5316270223981645
927 1.1242091310566735 -0.0019472482247168466 0.9832594673592265
931 1.2673710513305045 0.07630725605793814 -0.494852337116114
1366 -0.20983743291307702 1.0509000713811127 0.7159701778608605
1369 -1.3132712789276246 -0.741845123504679 0.4382091354279932
1370 0.09765300199136914 1.6709588393820636 0.006439366011319523
976 -1.565204286355308 0.8073184560151382 1.5383435247475987
1373 0.646491738451386 2.035687851754239 -0.8062724006011811
1374 1.1054430121321317 -0.1274279816560461 1.3872522238367844
1377 0.17891728806278823 0.5240766110231266 -0.7602322724915745
1381 -0.9193165289360429 -1.928412795891657 -0.5262389238793286
1378 -2.2193148425183646 -0.4777600644877283 -0.5529581827333329
1382 0.8518271429078816 -0.21733800729557837 0.5183513797355327
1385 0.9083535587056101 -0.4476905692734376 -0.8200383625874518
1386 -0.6738938966525239 -0.5184795282633056 1.6899924932447106
1389 1.9681477757613537 -0.08037644688719674 0.29464029993687585
1390 -1.29295706954896 -0.40140856119683427 -0.1984139159382669
1393 1.1392418423056874 0.4825820514575174 -1.9139929403371505
1394 0.4598207280367042 -0.13637242505590574 1.4265051711482752
959 -0.47164788561814486 -1.1268960529263796 -1.2874026523784066
964 0.23124577669260335 1.086211036816014 1.2583233703970949
1397 -1.442084514040218 0.41161396849998666 0.8339977654373361
1398 -1.4695723187910752 0.48367021121531667 0.08331243949884445
1008 -0.11449033339645967 0.05985445923843554 -0.04231522923785024
1405 0.06175342010634718 0.6176510099554877 -1.5183795586830022
971 0.7199595833946378 -1.6003696555883737 0.5403062289193473
1012 -0.7478013857874778 0.24462892057433477 -0.933469913228966
1409 -0.6390513465186665 0.5309485728483843 0.25124774567775704
975 -0.2924196075560287 -0.624508140449338 1.638205378270409
1016 -0.6841058459201448 0.5077567377114169 -0.1280738180064338
1413 0.3678341892578289 -0.08147419748957702 0.4704643312683386
1417 0.1135797397764715 -0.7942936296622249 -0.528740335491539
1020 1.4931338905014897 -1.2705209058034443 1.1200072102449805
979 -1.7419359164848351 0.2191806785369188 -1.3386727853437268
1421 0.289182234559918 0.5140448655253606 0.19773194382737522
1028 -2.182074417299747 -2.186228611091273 -0.1323784531668409
1425 -2.472812756345277 0.6302457251753067 1.7602637466681819
1429 1.1983936260753005 0.3251629860115281 -0.3721652062141986
1433 -0.5835040226375178 -0.06930377230975313 1.1537176629180688
999 0.3421129648325498 0.8865267073533734 2.23515236498553
1401 0.37438566020082636 -0.43532529844337137 -1.282567264068328
1437 -0.060613386138743175 1.2357102973971477 0.0583458853585397
1003 -0.6637079005778146 1.154681705567555 -1.312082663981752
1402 0.5741075498654965 -0.835737213229664 -1.2353671617996635
1445 -1.3349211922261772 -0.43927917112402753 0.8062491619659631
1441 0.976887667605744 -0.8080632378777926 0.701675176421862
1406 1.585644057908442 -1.0812152307955518 -0.4423853080445
1410 0.21287950684439264 0.34224632415064443 0.35736507930734007
1449 0.5140057897814003 0.6698607709424116 1.4141229772635981
1015 0.7305708319621336 -0.1617285585549685 -1.170549105830268
1453 -0.09748292051485057 1.4142136266024707 -1.5482446673062742
1414 -0.07003132994503529 0.6051181990122068 0.5177145304467105
1457 0.791740376612676 1.8243583912811374 -0.03414535206300839
1422 0.3141277676917946 0.6789736330714718 0.7634965841646864
1418 0.4698834500944641 0.24779487130763786 0.17879934268752795
1461 -2.9239223325273684 -0.6801173086581133 -0.06782448195245726
1426 -0.9989807232702743 1.0110978747619725 0.31065227031168446
1465 1.0852473443837682 -0.4376314798343624 0.5009798420293672
1469 -0.02787244320651628 0.2593421948403041 1.9193662381938792
1430 -0.45387939338105787 -2.4694869191937663 -0.05944199642895341
1473 -1.377578826313358 1.159058764819399 -0.09114242920407799
1434 0.45084946092042005 1.7269456773426026 -0.062299788426426465
1039 -0.3428962714510242 -0.49793608367270115 1.5025491228662133
1438 0.8921766584241936 1.2536101591355135 0.2777279414618927
1477 1.1613910284127493 1.266666504125269 0.7935892317912051
1043 -0.36416010785078934 0.4573233802325329 0.6646061221151521
1048 0.7476914913045297 0.5014205340815385 0.07829032699080585
1442 -0.15271403728252095 0.03860648457837261 1.3752519343788037
1047 -0.5266044126957189 -1.1396682799511937 0.43718544411139404
1051 0.38675202097006145 1.5289246984205023 -0.5238971031622855
1446 -1.4661121309246574 -0.2927363897445289 -0.10985800118245163
1450 0.8110632712996259 -0.21359203681946207 0.38786990247056313
1055 0.4439395712175285 -2.236379944146375 1.1111888712921114
1056 -0.7306006456396776 -1.0747994621401922 1.3176363665082609
1454 -0.8772161186508362 -0.27163184500628806 0.21412340526942417
1064 0.8852302326175648 0.7434605456011882 -0.10428297552124022
1458 0.661259391584044 -1.905716813464706 -0.6707925093438435
1462 1.439849065023999 -0.006895467211257235 -0.24285113646825932
1068 0.37048578405409993 0.6401288057428918 -0.37736533200756084
1466 -1.3926338715036999 0.6890575341733528 -1.0387808541937715
1075 1.3022464696067533 -0.8569001355489806 0.5023489204371168
1071 1.2658316052944891 0.5016293842694576 0.4434310775302646
1470 0.2175296546193466 -1.1659345086490662 -1.4962544546159797
1474 -0.7221942047963734 1.092510532896267 -0.20047776846628
1079 0.12915033823215985 0.2409671101570215 0.5092397122810514
1478 -1.0461174039341847 0.009789089059937892 0.8307654406640702
1088 -0.19414711974453794 -0.7786924739153555 1.3285910026400396
1485 2.866063113741338 -0.6618226570945335 -0.0028349155699101606
1482 -2.47392614303944 0.3281492357987228 -0.10519489708458231
1481 1.042061236055192 -0.8445399882561552 -0.05598060267798368
1092 -1.2382890463812353 -0.06246303573952399 -0.04182298666736941
1486 -0.4619336102098523 -1.206602396645707 0.11860391348096377
1489 -0.08811096436494979 -1.2459363901709077 0.05111601462913435
1490 1.2327230361544184 -1.1560245479331575 -0.5535598904479071
1100 -1.2707385783285583 -0.651058066052971 0.454375894747473
1493 1.3771525913491331 0.45603613464629017 0.19993055327775697
1497 -0.7466880213440961 -3.1717561694552403 0.20132188780006435
1494 -0.31090155828967464 0.20664895018788204 -0.403451338894427
1501 -1.310488927395974 1.2166509615332752 -0.2929487085453498
1498 0.2203992605526842 0.5398362836170075 -0.7542393919163318
1502 -0.2309671041354669 0.9507240980895584 -0.18546971353519323
1505 0.4969618778049651 -0.15623551346993453 -1.0891577216545418
1509 0.5864753132373683 0.5912870079457611 -1.6765996644144614
1506 -0.5306816068378083 0.8484877241837161 0.30805946530534717
1116 0.5005197015656053 -0.7745522494176073 0.1550815428369213
1513 -0.8695409246255428 0.8963410560320912 1.6768193182131512
1510 -0.0715163322562869 -0.9731957436903277 1.5357806859223195
1514 -0.7265690899974903 2.191834211985056 -0.5959772153587733
1120 -2.179768604984271 -0.9525887885419542 0.8646917871112526
1084 -1.8735418729525273 0.7529880286136619 -1.2087336168010132
1517 -1.5471875199503748 1.6278900660273716 -0.6485822416938362
1518 1.0319353643220548 2.0956089994972245 0.6693730741092273
1083 0.5270834801902917 -0.732937760730171 -1.08897611648043
1124 0.11333111723997212 1.4289011132307248 -0.5672718555965486
1525 0.6750918208401205 0.41231084259733114 -0.6112537015149103
1087 0.2642544366574041 0.10310265522628052 1.5601294712061047
1529 0.6151840051192251 -0.3294490683878511 1.557847541303689
1095 -0.4974109440710678 -1.0563686897763398 -0.09927800295115667
1533 -0.7005290148973755 0.3799966333883237 -0.5463033986618009
1537 0.2456200646336407 0.15062124454675302 -0.6334005877639971
1099 -0.29549467617688907 -0.30061003840015155 0.9555310744827908
1541 1.8362528954140707 -2.371363709845748 -1.6063421899197494
1545 0.09592833314819078 0.8846971390334215 -1.810473680898315
1549 0.13869426613856262 -0.5887554186525715 1.2304331495066108
1115 -0.16525155951775106 -0.17421366352692205 0.5666679867868027
1553 1.6644055292520417 0.018898694306024415 1.8263051400318093
1554 -1.4387801117747374 0.2891234098824421 2.0785051324598016
1119 -1.07484230431437 0.32090060597196934 0.6530904034224576
1160 0.3177404855701683 0.331938337760195 -1.0865199519595476
1521 -0.21240444796950816 -0.3460392491315861 1.628420054569741
1557 -0.2096041914767065 0.14793525905874835 1.2316237411212496
1522 -0.06520199606688236 -1.5580641439648437 -0.17252560731075675
1123 0.28081544034139316 0.4137483299621698 -1.5364748137790323
1565 0.1558110410433232 0.31671844810653277 0.09191480243821719
1526 0.4702824872371136 -0.6581676588989213 -0.6642134881764692
1530 0.937143581180831 0.896356029449711 -0.03628218506678571
1569 1.307588971136876 1.762710706880328 0.7800870808350078
1534 -1.358365868268344 0.22175435983048386 -0.9150333171331324
1573 0.5361899126736039 -1.1969348120099899 0.23108444649769896
1577 -1.102287781273599 -0.047574804658819476 0.44711983803852007
1538 -0.29835836269830435 -0.16741517896912317 0.0481191972506567
1542 -0.12904352895956286 -0.4821135028719505 1.1520299136303895
1581 0.23813330717697595 -0.15879929199854365 -0.583228632507463
1546 -0.16185589743121323 1.5359730391895057 -0.06478360710248998
1585 -0.09078944817585613 -0.6847091430416921 -0.6862553057292566
1589 0.2760231267032946 1.7167830063321536 0.6064191520796982
1151 -0.8329077538673374 -0.23201853302548905 -0.07245464543270225
1550 -2.053586464576281 2.1290830494127806 0.9574120310646577
1593 1.1511165731908315 -1.0155612518396613 -0.7648303029683095
1155 -1.0906417884937176 -0.1412197033180153 -0.19004219853153037
1159 0.4609803069829292 0.4457361168744849 -0.6993463813953988
1561 -0.685694772793579 0.4138501987880668 -1.5531735244187999
1558 -0.46532116479746716 1.875817233635328 -0.8222415364503044
1597 -0.026881365860049276 0.48523524986247246 1.4175053424535882
1201 -0.23513022040448303 -0.3794782833967774 0.46088392702932646
1562 0.4622495876568456 0.05242156811870857 -2.5633340832000675
1164 0.7264658010289294 1.1181582939123937 -0.1451040307878477
1172 -2.0708477255215 -1.3296952403644522 -1.276078688729883
1209 -0.3287891007419674 -0.6572334570483731 -1.245624402014127
1566 0.6474446409480399 0.38354956183654976 1.0615308468281062
1167 -0.2504946575524309 -2.7265513144628586 -0.46330553173736094
1570 0.08159536571956491 1.5731699463508877 -1.3595303364080018
1180 -0.6321447802328287 0.2127232150480179 1.9275597501594928
1574 0.016926595240697083 1.352546710482783 0.1536299397110945
1221 1.32948156455889 0.3023338139528752 0.7677605815475274
1578 0.5641556639965731 0.01319612360779088 -0.005714280833238105
1582 -0.05033164970790661 0.1305365553243815 -0.17646109473603352
1225 1.1878096817527453 -0.6221499189327128 -0.8202974054570986
1586 -0.12580363679795892 -0.6876764960247386 0.9336581435934451
1192 1.6978372506578132 -0.5264792265040393 0.7113752831053748
1191 -0.5492444093677484 0.9470873104029253 -0.7746460525215756
1195 1.6387974114468211 -0.65309198234298 -1.022182909685712
1196 0.9039734495437654 -0.10041725867369375 0.7661282821073742
1590 0.47722839763510594 1.4197520867039488 0.37059197251830456
1594 1.1959877234557497 0.07305991184523879 -0.6518044079818758
1200 -0.35848276909077076 -0.1443654992081834 -0.6840792157967504
1237 0.10776792805773117 -0.34052247707107175 -0.7927356964964182
1598 0.4542558829337646 0.09881286149464721 -0.7352077126309492
1208 0.04966036099039043 0.1153675727866921 -0.673876317715639
1602 -0.3171533631528347 1.7496698730107867 0.489249523684456
1204 -0.5425622620831552 1.130206617839353 -0.005923973243470202
1606 0.280126812073713 -1.1975463936830544 -1.1010047915153587
1212 -0.9553749203404013 0.22331751364276545 0.8814947532141377
1610 -1.082900256590954 0.04985262047804762 -1.0715667742259574
1216 -0.991604411810322 0.2758048914301586 0.8369007126027802
1220 -1.0672890391117564 0.2781326588315736 0.9464868011233496
1614 1.0915722686551121 -0.10126032768196368 -1.1677692916905462
1224 0.2441827284694627 -0.1397717288707591 -0.16115196592068487
1618 1.3113882370982024 -0.3177549923837591 -0.4739004188129574
1622 1.6104851068559114 0.9525713234924372 -1.0979183000194954
1223 0.6588351041857604 -1.135711386584134 -1.6027671587868002
1228 -0.050650310793440005 -1.5810939758351332 0.4255494558723414
1626 1.4555822341449045 0.057603846804174144 2.6664109918057295
1232 -0.507089065263662 -0.7237464496416872 -0.6162691505369597
1629 0.8740058539294767 -1.197755897336858 1.5957823479882958
1236 -0.11231962865537458 1.1312138276826926 -0.44574958039427526
1630 1.3296953881081754 -0.920191558005481 0.5733405056977322
1634 0.21561896837503905 0.060013116533156816 0.1866352211891924
1240 -0.4360097731971617 2.579322489585698 -1.4320105278697715
1638 0.11759328290855808 -0.6359373543404414 0.6904170497191254
1601 0.09791878186028428 -0.3263567501969008 -0.33746431035861074
1203 0.4818857973364573 0.3468323790432718 0.12697908258555557
1248 -0.8760832963959734 -1.14962936140798 0.7430866130091932
1645 0.926478586187823 -1.198732803184559 -0.217902954408574
1642 0.8599808062357902 0.843007222391909 1.430892671802299
1641 -0.6402881933788432 0.8998422024046133 0.34959796526387443
1244 0.2120254287435834 -0.5485066495616304 0.9706177882878987
1211 0.7708021175704759 0.03455029080045995 -0.009914364760786743
1207 -1.0056999311131105 0.4065392601208166 -1.6030215107210362
1252 -0.24689725180053088 2.048998336539296 1.8014663670962139
1649 0.7384861747795473 -0.04312247222066958 0.6347544440752811
1650 -0.49196198456458073 -0.4832548292043427 0.3390925715519893
1646 -1.2841560892326958 0.9863449649190554 0.22799147336370898
1653 0.7570757549996131 -0.4632845313643508 -1.2581180827426317
1215 0.13932639754454473 0.9364075206647265 -0.24235726940815294
1256 0.9347321076945543 -0.26699096309765313 -0.4823881735101114
1260 0.3592241099122903 -0.28941595821528293 -0.4498957771523703
1657 -2.144496730134657 -0.14872841491100416 -0.60647351326696
1654 0.8467499606080195 -1.5316810402274366 0.136045387671043
1219 2.1177643751075297 -0.17306643691946513 -1.0516864609889351
1264 2.166385073282354 -0.9735584391454633 1.4991416718597357
1661 0.17639031325549245 0.07100377357957782 -0.435890822923048
1658 1.617452966872242 0.0485363624702067 0.13932098511127508
1662 0.20844460145067836 -0.687649157700483 -1.0990897101714256
1227 -0.07798622091458067 0.21478646513724156 0.5819895035307924
1268 0.8394483648875194 -0.6952409146143262 -0.383657175846244
1665 -0.4486212336391052 -0.34446946044944676 0.7971744745533634
1272 -0.10064319535443973 -0.7149643217868896 0.6073589380439848
1669 1.0663285301925738 0.8569678538900599 -0.09657187315773894
1666 0.01454373321644038 0.6267274261552959 1.2832253847360395
1235 0.4906097148133808 0.7174097559778484 -0.6939145643189897
1231 0.11077554600265181 0.1862046182227243 -0.1932366638434607
1276 -0.43842811082898214 0.841360008679965 0.46668392019575305
1673 -0.42895421795220556 1.2759037432973246 -1.0535983712173784
1670 0.44862647497564156 0.5021165399982577 -0.9337379417433598
1239 -0.7313189864150398 -0.7719360867613669 -1.3403213734888784
1280 0.910134581119832 2.073180087211679 0.9192301442399619
1677 -0.6150910614175369 0.9186524695879948 0.15561353625315516
1678 -0.4006288914665359 1.1940035422515842 -0.0003588327726377839
1243 -0.7332094248297846 -0.23045553552980644 0.702795847595275
1685 -0.8504491295675413 -0.08270953524526696 1.8542344394855852
1247 0.4533900006139761 0.8795708041050735 0.6463169904360732
1681 0.6459878031018592 -0.487480258020491 -0.23182588531214587
1251 0.48379791896991725 -0.5138002557248225 0.4595388245313009
1689 0.2080355759499966 0.6759788780349485 -0.018482259911408158
1693 0.566409293544219 0.14087063122649351 1.2866454107336005
1255 -1.7490934164914975 -0.45892289594260316 0.7958323384988348
1697 0.7175402234490447 2.864965079123021 -0.34441535231753306
1300 -2.2383157119498227 -0.07854863761596416 0.22986218628440794
1296 2.3902832690007236 -1.0718019928159837 0.45916192067949213
1259 0.05539791197234156 -0.9300090725561269 0.4537672661965798
1263 1.958674259646501 1.0964200432638016 -1.7153741191973624
1701 -1.2852850021990738 -0.7232497541298372 0.3044010206883403
1267 0.3710300713660838 -0.5759580414849477 -0.2976424746964903
1705 0.19606430017322796 -0.4516950898262198 -0.06256436940810345
1709 -0.9063760739491339 -1.5056568570144027 1.578314395872566
1312 1.308461577168089 1.0280430162970091 0.8773792004799387
1271 0.7648675695682603 1.0481513436847167 0.2696762124034021
1713 -0.9412587798001305 -0.8683066283656894 1.1294502093097063
1275 -0.8719868954153432 -0.22742480011491653 0.2447216280534159
1674 0.24177857898197344 -0.6200333858454711 -0.49380181814250634
1279 1.5500075395360675 -0.5211725656483507 -1.2005477691926534
1717 -0.0065547090824648975 -0.636143369175233 0.07121097306205298
1288 2.248312980865207 2.2480348660404292 0.7501090998765623
1283 1.0210685752606858 -0.3552893868578194 1.5268823617941185
1682 -1.271013638790112 -0.12034010603893067 -0.7217184920061189
1725 1.5138607312706243 -0.2836221118038479 -0.1712430944873339
1686 0.8695735517634505 -1.0540022240393185 -1.3964716057135778
1721 2.041334982146667 0.9456139288945287 -1.294277355255235
1292 0.40347146876544543 -0.5159580910159137 -2.6854298414803166
1287 -0.052111280892906356 -0.23331982915366356 0.27390047239726195
1291 1.1354120712259945 1.5979149465723683 0.19521950863640755
1690 0.4824381640096019 1.0889674698519778 0.42231543024356494
1729 0.9437781274463783 -0.5544013402000124 -0.7559127988440165
1295 0.9959365142302363 1.609346108766899 -0.7644782525258216
1694 -3.5220904924807237 1.138110120442759 0.435596134563183
1737 -0.6258501611281713 0.6885987094391718 -0.3972325806697337
1733 1.0183962604982613 -0.08567061743624636 1.1301276249906076
1304 -1.0781623478159192 0.8702234437869607 -0.28314583001177357
1299 -0.23359001061935922 -1.1511850332989784 -0.48012231691137786
1303 0.3283097024212827 1.6721544019357344 1.6710354534326828
1698 -0.22551249765800171 0.3183358549996765 -0.002683750128874467
1702 0.9602670833499222 -1.8253742783923714 0.43583356693315567
1741 0.7625545058377791 0.2889405865283134 -0.9049343973454648
1308 -0.33971201464199535 0.3713872131830222 -0.14652119744344239
1307 0.38547618945585493 -1.8038036340397854 2.0042792093662265
1706 0.4428726622655146 0.25873463619178827 2.232337865813462
1745 0.9625038371606532 -0.14649057072215274 -1.40261905096875
1749 0.15790248266072246 1.0611970589449156 0.24570901985897664
1316 0.1499067743831229 -0.813958198815827 0.5992108981641925
1311 -0.10292074738247396 -0.45585735538369687 -0.40957353768776006
1710 -0.11660693850070088 0.30121870525140887 0.5077257399213042
1753 0.5588272045141659 -1.109721479988144 -1.3084005856585148
1315 -0.18899423240623234 0.9888258937346011 2.1656397654448636
1714 1.3653993618337812 -1.295288753436549 1.600016609230799
1320 0.3694718355114757 -1.3349190102580548 -0.20389402175663154
1284 0.2692986131330774 -0.697749794084823 -0.03818211320671678
1319 -0.5151146360982142 0.025413510219923625 0.11323400929295468
1718 0.5114360992233341 0.9566764599995665 2.2644581634815473
1757 -0.48965995540071655 0.5476148919276173 0.07614592334156024
1328 -1.3193412553676567 -0.7237434944104285 -0.15821319788550406
1722 0.7027738669287957 -1.0090442528479504 -0.3951572611276444
1324 -1.0211550112562413 0.02966107438925146 -0.6671210440420919
1726 -0.4700768096243609 -0.6842006965251272 -0.8715456003521025
1332 0.49001230691956754 0.4349766792512788 0.5592000490776582
1730 0.6123097708542624 0.5860892830979086 0.6335634831117786
1327 -1.6513867413871737 -0.8569649854049682 0.06490501936275209
1331 1.979772552951398 1.5401021509886 1.6528391181229491
1336 -0.9476222412953177 -0.6531649020756831 -1.1123047416389633
1340 0.01485827953207808 0.9797108225840787 -0.6739965567286905
1734 1.0304590030105494 0.05781393717089404 0.939312666718281
1344 1.5259934624581497 -0.7701754539307578 1.2244583138739538
1738 0.2771175005157151 -0.11701164009336391 0.03705004061699549
1742 -0.769905888858478 1.114623767749572 1.593979851490166
1343 -0.6640585510171955 -0.3121089063646548 -0.02454105305779941
1339 1.3631234673850867 0.14418726332471948 -0.7871489814685781
1348 -0.1526714392392487 -0.931633770074919 0.6884613731142517
1746 0.09766476650137347 -0.5509702596386352 -0.06814119614934931
1352 -0.6500611162881916 -1.580260944839603 1.5667830666910898
1347 1.265813900144625 -0.38178923032296147 -0.4249527945596878
1356 -0.9570126698226534 0.008367294973520038 0.026304717856147
1750 0.8376724777322717 0.09023264766774869 -0.10863425323876164
1754 1.6274112234328335 0.8300056692047563 -0.7797520521186441
1351 0.26999605733965326 -1.609535564154965 0.6306883516939082
1360 -0.8772532724519211 -0.17110209042525532 1.1698502418120287
1758 -0.1503227551634888 -0.8697451601170207 0.8975912664931568
1323 0.6850987049725504 0.3353952911328296 -0.5041170647839864
1368 0.7300117430713219 -0.3309394016104446 0.1693846242319638
1765 0.1943818653796501 2.0125739276394294 -0.9220042777098034
1762 -0.9517698604097162 0.15251968596184926 -0.3347400753466069
1364 -0.8533745782896464 -0.38289417827337885 0.2134292474644241
1766 0.9802478145890196 0.18693020795702783 0.011759315731920851
1372 -0.7872196946372336 0.3190564411327097 0.24237861997256496
1769 -0.026150249114694848 -0.4975803142787298 0.9118477179975484
1770 0.08466495283674237 0.5371796243175051 -0.16541445104506328
1773 -0.07816964399363456 0.0491251725671506 -1.2193699043040283
1335 -0.7286821300009878 0.28698089821556383 0.8004178945302527
1376 -0.09836923306524223 0.7891323599808475 -0.43441455178003324
1380 -2.148434116378561 0.14040676171724834 0.3322740412916
1774 2.108502210180452 -0.478226069583889 1.7711917344309613
1777 -1.3470402457523891 -0.06038579697444715 -0.607732961058378
1384 0.6567112564445574 -0.17050484203130511 0.498706518161283
1781 0.19579152503524033 -0.5689138015704406 1.1988058466682434
1782 -0.1426182845894211 1.0692157516682408 -0.9045202318096381
1778 -0.271028901890386 0.9417752185888475 0.0778824318862365
1388 0.32772500401467364 0.32180232039785983 0.580652271194541
1785 -0.35138063472978043 -0.2556852172946248 -2.208837681260262
1786 -1.6858411073510613 -0.4625780902718091 1.911359612597304
1392 0.0895847204285816 -0.5373937363556328 -0.16547419446963685
1789 0.5316442518131855 -0.0894448112855403 -1.1370642579528858
1355 -0.03297834058468961 0.5185181889339461 -1.5225174599964175
1396 0.2660727698779547 -0.13045616406555036 -0.4322446493748485
1790 0.16715466859957434 0.2366871722075437 -1.75392314076582
1793 0.4956745930544298 -0.06466879652446177 -0.620653455868597
1794 -0.6333261444997009 -0.37871487316523905 -0.39672026956297446
1761 0.5345731479459621 -0.21180774925504423 0.1793248735277473
1359 0.09918357490974235 -1.6352100030461478 -0.9756195442588605
1400 0.4062451218390319 0.41080215738434717 -0.13917023338184986
1797 -1.7842137004608358 0.4573679231326419 1.0998576160990807
1798 -0.22101658046674522 0.9735732510742539 0.39802915630623953
1363 -2.2469046176880805 -0.886190725399091 -0.11727755788344013
1805 0.47480257528830455 -0.6633569922346307 -1.0234688687366997
1408 -1.3378501622208856 0.7636210207141364 0.20780599136896766
1801 0.9487551199764755 -0.07159678551255912 1.5660360394308994
1367 -0.2866507210568942 0.3274399621045893 -1.908803518229448
1371 0.1803542339771812 -0.08642157100901507 -0.3993808231760811
1809 -0.386404854305615 -2.1976651697650778 -0.8563022072835497
1412 0.3251043848968199 0.22688729862150228 -0.5239257198154612
1813 0.04605528134817033 0.3952876718574089 0.43710966060167367
1375 -0.42346343401360953 -0.416608901354477 1.051149168716574
1817 -1.2016809322713047 0.40376232118737304 1.3234941061191126
1420 0.8847884266622132 -0.4700822489562525 0.5189393649713937
1416 0.44236469727886224 -0.20240955312213207 -0.19499500924314223
1379 -1.2963380221618561 0.5679254205097345 -0.35215389094336946
1383 -3.386727066170517 1.398446122900668 -1.1720177510526775
1821 -0.0011057148427213994 0.280089979302208 1.0859503715945464
1424 0.32988083673779106 0.26038863518420413 0.3498954365463717
1387 1.561760609343135 1.0415421590131733 1.340033109453313
1825 0.47005454403066865 0.5428736137609379 -0.5695861919657622
1829 -1.3047828528334902 0.8423474382375656 1.5189488238631623
1432 -1.1329419211364178 -0.3143339263662206 -0.6452112261691674
1428 -0.5130276131478877 -0.3063938882794381 0.7377448685258728
1391 0.8682485690176099 2.378150073152972 0.3024748181121982
1833 -0.035274316567040616 -1.014424098985792 -0.3920712710932062
1436 0.7098237372406259 -0.8602092573156513 -1.3231733128443173
1395 -0.020623729037797977 2.497598093488974 0.10445297134984334
1404 -3.9283799024913684 -0.4660822819328997 0.3878281436502011
1399 0.07363174506155788 -0.10307527801719009 -1.621700396633868
1837 -1.0989639550857115 -0.5964055857017607 -0.5274952593945141
1440 -0.10403889073238799 0.2895388210277532 1.0365647802611073
1403 0.365386639078356 -0.39415570374316805 -1.043275166294475
1802 1.34920024026771 -0.9092980270996084 0.1154211108782621
1845 0.7537083660736568 1.0650480753549847 0.7358340534977988
1841 0.2647759851324411 0.08450325600652749 -0.9435505464688522
1407 0.2871376460974554 -0.0822999212651721 -0.5114143908627599
1806 0.02919544587086521 0.8204070648443935 -1.9621446826230315
1810 -1.566545027658144 -1.4662085168360508 0.9125983929118118
1411 1.2544573993351467 -0.5874537376744218 1.3183098607570911
1849 -1.814957330322107 0.27708096655485187 0.9064613976362276
1853 -0.950169656402178 -0.5827442595133817 -0.38950867103581877
1814 0.54934112627645 0.72887279229515 -0.04944493050108971
1415 -0.10182113116629461 -0.19441055606451838 -0.4513638908412472
1857 -2.3458915193019307 0.7294296612580463 -1.0701294242142194
1419 -0.2572239603958837 1.2657806081938079 0.1787744225778525
1818 1.999609014118377 -2.0810913896548704 1.1069371959257497
1822 -0.8424955392147658 1.4619935165725269 0.9097164803585902
1861 0.006439944044345665 1.0628815932491336 -0.9049596665802225
1423 0.4994995521557423 1.2135233530652076 1.0326869274116355
1427 -0.14530839985756946 0.14520860730763474 0.6556446962195742
1826 0.5774810783482611 0.8622947046571097 0.6619515730466993
1865 0.4310903694174957 0.15186769026492372 1.6428340024685257
1869 0.509263811912277 -0.10379735376038392 0.1433567057102606
1830 0.2988996771933357 0.041319141878479834 0.7335539855722476
1431 -1.489900487336177 0.09378564570484901 2.419203571796175
1873 -0.8353589525110129 0.1419322426356616 -0.9134502027984234
1834 -0.08612974819223806 -2.319572727784638 0.22638788262876938
1435 -0.09089239019559847 0.860726622878365 -1.15512907592501
1838 -0.06301085336553905 -0.722992765537993 0.7055675487973241
1439 -1.3185659938233003 0.45059065070006743 1.525698207067475
1877 -0.3413960889443495 -0.14165889506257187 0.7420831378468197
1448 -0.1857852661742571 0.8799124094607503 1.174521212528497
1842 -0.15992885439759125 -0.5404828423802842 0.7141967726401071
1443 -0.39622110323184534 -0.8535104478635336 0.14194718380840451
1846 -0.048290511141551674 1.1681025571704333 -0.6517608421589788
1452 1.0790190592776292 -2.0927982799613374 1.0959326539920717
1850 -0.7083118118142263 1.279385839326583 0.7547581873710704
1451 -1.8179989771813145 0.163335434335942 -0.6623114703047146
1447 -0.07893368136498466 2.145308561595589 0.34473144500815694
1456 -1.5381434166574863 0.6416739170578064 1.6120057261966467
1460 -0.19362174790626824 -0.5018673628735207 -2.2838512530768917
1854 -0.29262922814289083 0.3908947190286976 0.19173338224735215
1455 -1.7447062377602798 1.4051592904632932 -0.4196050599487729
1459 -0.3298874242298456 0.23875370202944873 -1.2699584647267315
1464 0.017793111096401734 -0.9356864071796299 -1.2103170133600434
1858 -0.5151646576921347 1.817831048246461 -0.3701404307863729
1862 -0.54255150688182 1.5364270397191724 0.31642179173507934
1463 1.0274043382183131 2.2434345571495857 0.37555855807893446
1468 1.1699248063856025 -0.9107762115729524 0.11378199505658333
1866 -0.8804355808308679 2.0589474204955778 0.5835406143896877
1467 0.4105305899021412 -0.13515421741829062 -0.32298072319302484
1472 0.656096816634108 -0.5261547616039942 0.6085133141028125
1476 1.6116204798580875 1.859704076153672 -1.5575841612020558
1870 1.5079417177776209 0.6582531049001471 0.24978434675614167
1471 0.5530298452227986 1.0837104281116492 0.382540968977501
1475 0.5961348889876898 0.1714039433645023 -0.9860872972044451
1874 0.7634098168422238 -0.14826471877073166 -0.4288332465935775
1444 1.6870576657273872 0.866075428871076 -0.9665084483528986
1479 -1.1411755483233628 0.3214750271551305 0.8671911865605476
1480 -1.8760625714879022 1.9009052780722147 -0.37121960834025763
1878 0.521839755487728 0.04995463640581093 2.434777792515633
1885 1.2646719092288161 1.0290207380934964 -0.7518553743819253
1488 -0.3834591631883967 -0.003411041519216549 0.5842764602927799
1882 1.6459072175133393 1.2050332720323962 -0.5175440443232244
1484 -0.6522442419651383 -1.5792115389398838 0.08204330670064724
1881 0.48693002749568254 -1.06770229338246 -0.157029912786767
1886 -0.2610264323799839 0.4771436833807632 -0.5329906336668226
1889 0.13092134803884728 0.07301060940714028 0.46838095648600425
1492 -0.5454386194682164 0.4293772315104101 0.05016440172669638
1890 -0.20694461711145662 0.051985301587812345 -2.225265684621619
1893 -1.3013816888346268 -1.1531130487420975 0.24426881651980756
1496 -0.5211052204271682 -2.853180796729225 1.5457791921881405
1500 0.4894565764025968 -0.5375135030696224 -0.7533799803223906
1894 -1.1334216534386803 0.7620104527908824 0.7429104675950478
1897 1.638603468255624 0.35372044018816795 2.1725401001516347
1901 0.7583391771177901 -0.24038242891602576 0.9010126886567086
1504 -1.9051323223616419 0.06873856030681147 0.9627012228656596
1898 0.1005874054737628 -1.1034937323316156 1.4098396262523667
1902 0.6706630272145571 -0.7371710633236408 0.7316206733549225
1905 -0.9266154260767394 0.7012657494304403 0.5773919861975974
1508 -1.3144602213026666 0.0609239350289669 -0.8627887940883847
1906 -0.5551947958309473 -1.44821582137778 -0.837034939238679
1909 -0.42162076602873066 0.9128689879205452 0.0791039135465221
1512 -1.4463583578552779 -1.145249069379157 -0.9627820606346437
1913 0.294021178581498 1.0722398596447236 -0.49034793312623637
1516 -0.9145047668598051 0.7473383953778469 1.0627446989197726
1910 0.8816839361192043 0.16094259587152815 -0.09077309371671338
1914 -1.068187085092699 -1.5268045029071782 -1.4596193543684628
1917 -0.8723006396677916 -0.40904662922609714 0.8322216045986663
1520 1.009652275614996 -0.5119153117587261 0.3287923759317951
1918 -1.2533718787691646 0.806337078370004 -0.3997349378337002
1483 0.12932675904809826 0.529604118765694 0.6996790243308094
1528 -1.1240107805450064 0.08601373381340349 -0.6579031507431717
1925 -0.8138867645260076 0.508365246286469 0.16213170661756332
1921 -0.3371590797309105 -0.5966057884142542 1.8171645477863043
1487 0.49672548223199214 0.43759393811713504 0.5237085336524054
1491 -1.0094080779926453 0.5004913770960566 0.7468172365704049
1532 1.5286248636845738 1.1053018253056468 1.4219683618773424
1929 -0.7109908820323705 -0.984332533185898 -2.4392783372877536
1933 0.570934801497036 -0.5198660000826 1.3403871145929045
1536 0.7872616073267025 -0.2413171488389934 0.30848771573794503
1495 -0.3812117023365581 0.25898458749417996 -2.2245192785651366
1540 -0.21635599154003507 0.9294324127194641 0.15030960625055176
1937 1.0928959541053047 1.751780753827457 1.3341374788716582
1934 -0.015085241447544546 -0.07685866319954889 0.988891390172104
1499 -0.5460249413829334 -0.6973672777654238 0.0022644899696985864
1503 -0.6696795175319548 0.08708942164200899 0.8956758884675938
1544 -0.5616303851157248 1.5758043888927535 -0.6946735423950332
1941 -0.5646975247986549 0.2860394928601442 -2.538310363638298
1942 -0.025640468877367307 -1.0629755847049165 0.034950491097243436
1507 3.217962942833659 0.8589589961796952 -0.2806144236397814
1548 0.4298514687975065 0.7871041452522327 0.9175045084216494
1945 -0.8474578048207662 -0.7519171160565434 -0.40928644568846345
1552 -0.5060526214169727 0.4766148282940623 -0.6740947486363379
1949 0.5154140150916284 -0.4264393792219009 0.1949580241091186
1946 0.6807898579154368 0.355979126027239 0.710682693125489
1511 -0.7902964795047057 0.08979042302061714 -1.6386002332008416
1556 0.5053574421305657 1.784746981834029 1.2801996666305817
1953 -2.063752818981756 -0.14318008112741315 0.13875691620928968
1515 -0.6664191398688093 -0.2117417031702161 0.6137439936290745
1524 -1.4406209782934747 0.9950791335404436 0.6200160612752545
1519 -0.3532865583745593 0.25651509006183515 1.2776103637426786
1560 -0.7779091330724993 -1.0651870393488285 0.7411838406252624
1957 -0.6180441070509736 0.34015113972559496 0.3249644121916885
1922 0.2190560101265991 -2.1711224896671975 -2.5543300157940494
1523 0.3034745349927461 0.28271796006828387 1.2443126824141426
1965 0.5242561861192447 0.024534709695258554 0.37169774062780564
1961 -1.4148693741544534 -0.20532390829201144 -0.7057813302333679
1926 0.03719438625612522 0.3749535145352301 -1.6665746720252512
1527 0.07854072110863392 -0.251728758665508 -0.08667966914440986
1930 0.4456794437407914 1.2184227634640303 1.1116292089605446
1531 -0.7985782001085783 1.6877223430508432 -0.1587803467667405
1969 0.4294814794459336 -0.8877714053786107 -0.3976185535730671
1973 1.194119895655307 0.9767720074750057 1.0549623570765492
1535 1.2707403389788583 0.5375751535376971 -1.160969905044289
1977 -1.1367427062682591 -0.12218082441825287 -0.81625470676322
1938 0.7201370844686997 0.4998542011903547 0.8354005498451138
1539 0.2383490919220523 0.593465554811688 -0.007132871236915422
1981 -0.35301103844851445 0.1472077289499434 0.35935214787580305
1543 -1.350908678200285 0.44889178012314895 -0.17146184960953528
1547 0.8126359277089279 -0.01804628553520766 1.423004653549094
1985 0.3089663482403164 0.35380389792293726 0.7099815177905275
1989 -0.6232089067876134 0.10677330732072061 -0.6661701207310093
1950 0.3626015970100109 0.09458188134809188 1.0770383442887639
1551 -2.4319961525401657 -0.5316143726083006 -1.5039997866593775
1993 0.6582220622215567 -1.8312323460764488 2.4221187920983316
1555 1.0926917983427122 0.5238289608047156 0.2154966194140855
1954 -0.4359444193872386 1.2099680562055968 0.29637640877317406
1958 -0.3154717263243344 2.8507042568818926 1.3582187957592677
1559 -0.5203744003860469 -0.012206505610818383 -0.39740804336974317
1997 -0.9688118839088675 1.165620407155206 -1.2072183004910795
1605 0.335306511441257 0.5923699049350091 -1.1504668718967563
1563 0.3318882672900417 -0.2725750847599625 -0.21284722317329285
1568 -0.28008085456277243 -1.0471618805324088 -1.1270566053629925
1962 1.4023193541973464 0.10119831746301425 -0.7680062909136347
1609 1.5179508947752567 0.3462093714467551 -0.5653426175435106
1966 -0.6538037849103304 -0.9621951014486688 -1.241628500144762
1567 0.9560568028278181 1.5449885296640897 0.18527933076181086
1571 -0.5362694552813423 2.4950458928593453 -0.5837591275357816
1572 -0.33690642930995474 1.3430332316340117 -0.3131538071937382
1970 -0.3724559103256331 -0.2537828686031684 -0.2600174489760071
1617 0.22175474135121517 -0.7931088290621232 0.8813360883146115
1613 1.6821504342164493 1.581759724238182 1.2368779238322092
1576 0.27149256554684514 -0.9529513516798633 -0.5670892136447501
1575 1.0177990254511422 0.7247938175188285 0.2621199446258839
1580 1.4387883658701548 -0.8046274419368699 -0.46175437619550513
1974 -0.30058472987284823 1.0782863678365975 -0.38233919974808556
1621 1.491351170489091 -0.6940623998383953 1.1174179411359375
1584 1.2430320914903723 -0.8381848418666185 0.8019731104478931
1579 0.6731357462886804 1.3764882303163186 -0.9403043731824634
1583 1.3852751224865718 0.042167389749388134 1.899568683617021
1978 -0.08873041172041546 0.40685021053034737 -0.2344409838581648
1982 0.042710341407892906 -0.603647799588196 0.039046884734066596
1625 -1.0131783247573594 0.666504221090245 0.786670409833905
1587 0.8521887681105801 0.37811020429899317 0.6995453216728699
1588 0.5936189990479853 1.7538885430068862 -0.029004961188302054
1986 -0.11585267202248273 1.5295183248594506 -2.38220025658955
1592 0.5700247435599328 -1.946741382326416 -0.9825308855646625
1633 -0.10268966343547153 0.47677852037657603 -0.5330150545657087
1596 1.4848992217052983 -1.4346462949215197 0.5625323824613534
1591 -0.025115354060691555 1.0917882992046322 0.13274410811111734
1990 -1.4938364592437121 -0.6076812971639711 0.037192412052045605
1595 -0.3021126596185802 0.5087433704901281 -2.234504910373743
1994 -0.2671784901305622 -0.08380516500447385 0.28055636210395685
1564 0.7322582557047336 -1.3964006416447363 0.31380730836168863
1637 -0.6249432615734964 0.030231504790124833 0.36129609785879924
1600 1.7650495630031169 -1.9531321930455863 -1.0762194320662253
1599 0.6215517760525874 -0.28231312245834916 0.23958803258492456
1998 0.3477410033297679 0.9122536886696964 0.6976803225320172
1608 1.0038388868864803 -1.572683441696535 0.4610003524086712
2002 1.1249607167859186 -1.70339380368442 -0.03141184856098813
1612 0.2825800495826741 -0.9404927073271496 -0.5123639007217122
1611 -1.0838811126190808 2.088058637189232 -1.2664268032971502
2010 -1.3554615220133361 0.153620583046454 -0.05937353225685075
1616 -0.10918660010807005 -0.1625650878777119 1.3692521208364516
1620 -1.0157859494128132 -0.03924327779453809 0.40859940446286874
2014 -2.1708043401647514 0.016417483703077867 -0.0583939468388195
1624 1.3143014844403398 1.1757963857278142 1.0071851595792924
2022 0.6873825202237627 -1.068209984553814 -0.9176159384262753
2021 -0.6369241670931025 -0.08998008201133367 0.124824855819004
1628 -1.7745861623099592 -1.1938127452064926 0.01765810295604403
1632 -0.859706855565017 0.44101372943157136 -0.33789472807763055
2025 -1.7087061800375885 0.1486917237971191 0.00012227808535597391
1636 -2.371177968514729 0.48818754900427425 -0.4707401647657216
2030 -1.3852759227577285 1.7239771946304057 0.5132306815731659
2033 -2.4094662225568824 2.2515575989130747 0.18461776941189398
2034 1.2461902978875559 -1.23556294311441 0.35401136681227785
1604 -0.819258343189837 0.3668932325447896 0.3713175211571796
1640 -0.44178004591658854 0.36965119240585853 0.9566420984726339
2037 -1.2892866125511617 -0.6122744720496492 -0.4118071566798374
2001 -0.6369405161891771 -0.5109627642268334 0.32798448072728886
1603 1.0859223727418796 0.45593594183510805 1.3788220805245863
1648 -1.5385569139586708 -0.783731288005983 -0.552441927596027
2045 0.702761540104975 -0.22501631292546462 1.0394433229915088
2042 -0.32555513841772593 -0.10268643243137324 -0.5282330460941762
2041 0.39045310219588664 -0.7755364315074205 -1.3763203794826773
1607 -0.15698611785958744 0.6413698853234198 -0.12501087903003774
1652 1.1730189070456234 0.6618986669546993 -0.6221876798394421
2049 -0.21814831349360578 -0.46505513351443156 -0.9006755091597161
2050 0.06379263100444674 1.11170656440455 -0.9205005125749359
1656 0.005100133627948224 -2.3948933353788875 -1.224312684194267
1615 -0.43374707643548654 -1.2362058050597327 1.1463505835834884
1660 -0.47719168230367853 -0.26342336213218126 -0.4525703686039937
2057 -0.15128660100463015 0.18899609905579473 0.033556880960634354
2053 -0.1658322526101048 -0.3163849795817581 1.6086088334976942
2054 1.638708914338168 1.0448049982218492 1.024610559679008
1623 0.2928783473693874 1.3192279640612352 0.9165212865159178
1619 0.35010625788280886 0.7843451281528021 1.1108333238353378
1664 0.14478239748813967 -0.3237555792633842 0.3483091120231114
2061 0.9680171893196889 1.6406707886603837 0.3892996912876948
2062 -0.42855591735037635 1.3199640679856919 2.5330442687735837
1627 0.6167890763403273 -1.17675538707964 1.0257407689130749
1668 -0.6538490763074057 0.6212266955541651 0.48701711614682475
1672 -1.265263824796754 -0.13246140043524338 -0.24000459798197912
2069 -0.18061897903616692 1.1479116109681107 0.04881918764587402
2065 -0.20225576827377012 -0.017473221939164577 1.2554305432152528
1631 -0.07959595407920983 1.9598290924105772 0.32631902864987333
1676 0.32640628874951816 0.1985761350489688 -1.1798475208995383
1635 -0.7844962170493535 0.5194493107105347 -0.530593411789807
2074 1.727376575230341 0.23980847118051193 0.3771284604481729
2070 1.116766591369753 0.20677565845992835 1.099312772015787
2073 -0.51184104430811 -0.21031381373952368 -0.6268700005906461
1644 0.9984481966349412 -1.6383470416421368 -1.2241623980996286
1639 1.4367118169784918 -1.7081941460610164 -2.099061131968046
1680 0.8850356490604592 -0.5982876211668042 0.23103246193312363
1643 -0.9516125146980177 -0.6904109284211668 0.9060706992026283
1647 0.012870152195698793 -1.0610858494134516 -0.9661646933945129
1651 -0.6562312296148515 0.749993485716927 0.9021423809670726
1692 0.07831292949401424 -0.7977529948158941 -0.3302606880079876
1655 -0.49319327796535223 -0.7472968296688721 0.6704119450706203
2097 0.25805041490070696 -1.0404228675862222 0.568057787623346
1659 0.7702216283090266 -2.5166186739802607 0.9342117391207777
1663 -0.7387261489082523 -0.034732439367758605 0.5431431851181928
2101 -0.13711656044884474 0.28268211388238 -0.5840775860831108
2066 0.767446102099362 1.2565060946253233 -0.54371490629764
1667 -0.6435924749402016 -0.0877585564774331 -0.7674833322303777
2109 0.16953303099720757 0.2504025213312897 0.5497614117726616
1671 0.8967964077397277 0.4013642642082309 -0.25815929308870067
1675 -0.23364214666995883 -0.6827518546906012 -0.22998280974746713
2113 0.9203302405040946 -0.1754820765620955 0.9235831844654463
1679 0.09315229196391571 -1.5586164821086488 1.1250969748760038
2117 0.5247353632530157 0.9286818496160938 -0.06582061532511821
1688 0.5158012344176751 1.9948308923352258 -0.7057829495032317
1683 -0.03381171031220556 -0.015834370729391672 0.5724527168133893
2082 -0.44624749350364973 1.6251674123215822 -0.14626432279688734
1687 -1.2857268072015158 -1.8012071580361064 0.6333222688567997
1691 0.16031079292411327 -0.08476314414253286 -0.07704401195703467
2129 1.3035126390197802 1.4359721405818338 -1.1714841362374406
1700 -1.6488558254728742 0.8715585865120963 -0.044722144496927935
1696 1.108477148850337 1.981592603759612 -1.0789888388105575
1695 -0.914646258894486 -2.1647218302106492 0.10523221581161148
2133 -0.951842771433336 0.3976374519440383 0.5017378055014396
2137 1.617379468971166 0.23094794014526737 -0.8821653760417419
1704 1.341647934801055 -1.349176695446686 -0.894339375931793
1699 0.7559398229131233 -0.9297168305426964 0.4617521612202813
1703 -0.1311826026253857 -0.031047335839973322 0.29440820638743836
2098 -0.4142387234924344 0.4176487723696969 -0.14565294487964542
2141 1.2973596608273656 0.9485809326574478 -0.9217840839181344
1712 0.10736579149722306 -1.494661647669736 -0.14733679947595732
1708 -1.007303866927547 -2.014092514684319 -0.9113743822500189
1707 0.08686092862836758 0.7193954791836524 -1.391066712437187
2149 2.583028512447471 0.2573232581997179 1.0106432644829522
2106 -0.04864723868218548 -0.8019612205875303 0.36778329116763697
1716 1.257074044701203 0.7172154886544463 0.06360114358757209
1711 -1.937179826386474 -0.4132033501084389 0.15467779802090223
1715 1.947087884926847 0.22178764562389228 -0.4530040627634857
2153 0.24001485126225625 1.2383129243187685 -0.08259803250905061
2110 2.2195246351557136 1.5078793347138144 -0.4436919695485903
2114 0.8586400637406701 -1.7407135184434115 -1.1778277570009807
1720 0.0023683290620763373 0.585081907207752 1.1852242840563365
1684 -0.9041108861000364 -1.0116546491557084 -1.137989367765255
1719 -1.2348483615920152 -0.9064633282730259 -2.726427764403484
2157 0.3939255317470825 1.726796843037784 0.7420740987501793
2118 1.3953652271401118 0.8265355889173472 -1.5603350327928227
1728 -2.832411485168206 -0.7716023693963896 -0.27658449007380004
1723 -0.2124521183440645 -0.7002872563178268 -0.17860537955615924
2125 1.6387113464980307 1.3366094601596399 -1.2342822079072517
1732 -0.3473232404242178 -0.5154852493114317 -1.2261072857623452
1736 -1.5329426058273503 1.3468241139091865 -1.3380714015723785
1740 0.09985253534499006 -0.3952668471255563 0.8451029711073668
2134 -0.09894069119807211 -0.9762867460304135 1.6262963882877302
1744 2.846839308689857 0.3521257829958894 -0.6752791139513866
1743 2.0903046546374062 -0.15337615906579294 -1.1162136076561966
1739 0.2661922901582362 -0.0326108717548421 -1.412502370616595
2142 -1.5936517408087034 -0.5642813788555215 1.3273361961903587
1748 -0.24619866888461608 -0.9092631235746275 1.275109352286671
1752 1.029835227070269 -0.27923613837947703 -0.4615871323748696
2146 0.3321339391379865 -0.23907216941711337 -0.8064867841956684
1756 -0.5570672662986957 -0.4577247783643974 -0.3185691537689248
1751 0.09944953463718034 1.1439824340277949 -0.10237748931503299
1755 0.5024005247231188 -1.2101369871693417 0.5821100965927467
1724 0.012689934698909005 -0.09583709808099246 -0.278980550156727
1760 -0.7588491046715219 -1.0931995757604587 0.09530888063630397
1759 0.21140639292115018 -0.9895051187585924 -1.314609423949455
2154 0.20441103141739356 1.1695451607981664 0.033242738792720224
1768 0.5742590652905842 0.22723093129713307 0.4251576998936421
1764 0.48162145128850153 -1.1110930844535822 0.20911825262114642
1727 1.365459028820096 -1.661401093810869 0.5599060754715558
1731 0.4707236812148257 -0.13012832234641225 -1.7877489303588303
1772 0.15173411083008836 3.050525345380136 1.036133617832496
1735 -1.6549410624824343 -1.108030937026847 -0.4081021185339499
1776 0.6671265657756583 1.0913520008125985 -0.03360144509741331
1780 1.5442648926302205 0.3785357540865019 -1.5275300538729293
2177 -0.9652422311925906 -1.2156275140567143 1.2014121001148694
2173 -0.48089514839359343 0.6738747420139815 -1.1592823390542264
1784 0.8526512003812179 -0.37143176987222776 -0.4440017289832911
2182 -2.0385323245240947 -0.6164914785702155 -0.3887389792202173
1747 1.1631969714566057 0.9604478143459356 0.14132308527371426
1788 0.05607293725302106 -1.370166595218792 -1.009270902991347
1792 -0.22188857453833033 -1.2764497675070052 3.798850532868585
2186 -1.3973393818380437 0.8886760186744299 -0.36048854428767674
1796 0.02056136840490467 0.31678683759427395 0.18222909444267155
2193 -0.5640792668258447 -0.07903670306702702 1.0388904741831924
1800 0.28053164671814995 -0.3275935178303378 0.2668455020474856
1763 0.1943978521137263 -0.7544862141482348 0.04101699353151171
1808 0.15171012603658068 0.8296608010517591 -0.9373204945846372
2201 0.4477437727041227 0.2539428656250431 -0.3148599856498133
1767 -0.4000854462739718 -0.30019792481034313 -0.2924828464657989
1771 -0.2889528475353893 -1.0602707543184557 -0.3110760089298345
1812 0.781016335220899 1.1570527707395941 -2.2322654542122535
1775 0.987093512657483 0.030994310164657073 0.8781307308037181
1816 0.42001065702347357 -1.8730804348930599 1.6161746964199626
1820 1.72120229685569 0.8703700490193172 -0.42570578618615923
1779 1.483714781672345 1.7697862018036523 -2.2077295108853736
1783 -1.061949747635412 1.0840708275303899 -0.66427011290007
2221 0.33830901737500796 -0.4245700331128484 -0.6526518362140049
1787 0.9754869846670009 0.07299842269057677 -0.8172448857970124
1828 0.043977104315511495 -0.4248907292885232 0.05356491894833649
1832 0.060069902080378386 1.191602146083945 0.42215220376464613
2229 -0.08577743729766037 1.2862002915396786 0.3693811142081746
2225 -0.8607271973464445 1.140736769322842 -0.5091849077572127
1791 0.6743267817148416 -0.4911399447772899 0.8187133870616274
1836 0.38880844250171726 0.4115857768926865 -0.8150975933461646
1795 -1.3956185521070312 0.0620343778124018 0.10272625108147189
1804 -0.8789561380305488 0.105463807273722 0.9457899506312982
1799 1.7196572596388593 -0.8546217693902836 -0.7379802852296296
1840 -0.7942866611429313 -0.015616059516871577 1.1534346383105323
2237 0.7083153144433788 1.347911703980971 0.47451108995936486
1803 -0.014200458245236589 -0.50896542331244 -0.034885501012741654
1807 -0.5521639435403543 0.29085760390815796 0.06797469160133085
1811 0.9068090291421986 -0.10564271386596877 2.1934182802591957
1815 0.862443426445236 -1.292796408379871 0.29350369776006435
2257 0.483340693295683 0.08251880405582855 -1.1858569628031417
1824 0.4065294243128606 -0.23169767218602402 -0.02117839523357509
1819 -0.1799456160426737 0.42140065650667374 0.44853005682095715
1823 -0.5548133710188828 0.38638087603152366 0.897643829917968
1827 0.8153928976755257 0.5239682829455495 0.0984596694974418
2226 0.7025198535582166 0.1679664775090191 -1.0774540546120899
1831 -2.016716889735001 -0.44024848506940994 1.111217621420011
2230 0.32590389020959837 1.1855058764090995 1.5555995802760614
1835 0.852093369085709 0.7282311225259754 0.6468029120251583
2273 -0.3047617129606874 -0.9829136368141561 -0.9652221254275375
1839 -0.9785441311102206 2.2268245516428644 2.5598218041591854
1848 1.4218441499175722 -1.3626633267296908 0.9328554333982388
1843 0.9322862351583593 -0.6722966755625481 0.17291937908762198
1844 -0.7706948401905891 -0.18659294788699787 -0.17916536740858263
1847 -0.9094376091933867 0.011864978364021183 0.37556491553735993
1852 0.7862306583352732 0.25931327198107607 -2.852374759820973
1851 1.129326685521707 0.7907001080997116 0.4885929219913402
2250 -0.4855002300838626 1.0327580796542297 1.1636760284681877
1856 0.8910966896928382 -0.41143265414647545 0.7025939058845678
1860 -0.944385853977521 0.8943926615066076 0.051123563007107145
1855 1.0583068363444101 -0.52174179931329 0.9491335221202003
1863 0.5561188529964644 -0.8746638812765107 -0.7988173487050062
1864 -0.3235662648571568 -0.4364626345651172 -0.8612703756230774
1859 -1.5987269436257068 -0.7694307285746917 1.844865103830683
2258 -0.34806051362520085 1.0334591028069249 0.41286317938426964
1868 -0.4463832217609439 0.30307222591378785 1.4685196676909562
1872 -0.4255620700134812 -0.3386519627518541 -2.6100655556798755
1867 -0.8157056369378604 -0.5255970053357518 -2.2531310290291016
2266 0.2344605826723154 -1.0714099783508004 1.7929860353694342
1871 1.0846939696127507 2.079615415198957 0.04938982677772986
1876 0.6516401541186266 0.8673609212124419 1.3333368816307996
2270 -2.243297325629798 0.7794271418070049 -1.674472423452716
1875 -1.7223609701012716 -1.0266224856504171 0.15265140959626974
1880 1.0284817604758405 -0.2948812838053684 -0.1923181107788347
1879 0.10760931909039313 1.674939206715622 0.7895983307543122
1888 0.3798848976119788 -0.1271504291915318 -1.3255625228090944
1884 0.7273637003507302 0.08267923548488192 -1.3244028273805417
2282 -1.3268870115176523 1.3903857679590217 -0.5846285294412098
1892 -0.7611151414886989 0.2192087606077359 -0.6544995163110037
2290 -0.8753107515802752 0.8017508534006065 1.0059000108793543
2289 0.360706898652831 -0.7371911366576159 1.7928747378062106
1896 1.0344381416918318 0.5163318277801062 0.6095406916974708
1900 2.041316910018429 1.2189064085568633 0.7266771844321777
2294 -1.51867500410135 0.5838005900789194 1.8148545121999478
1904 0.8805504159978226 -1.5206196549730056 2.130255388165286
2305 0.5090187284392897 -0.7190917676490944 -1.0531239656058555
1908 -0.474329022267646 -0.5486642766849552 -1.4213047810895676
1912 0.6195198743587379 1.1699484128458193 -0.32152496091860444
2306 1.2318952616936762 1.087899977203747 1.3900784464364693
2309 -2.208051739875225 0.13342473600552673 0.9938146918113249
1916 0.4300140712350236 0.2144126937105498 0.7004329295512777
2313 -1.7779956153033871 -1.016402181768505 1.276395905685522
2310 -1.4139500459884042 -0.4047257095776127 -1.348128249459543
2314 -0.005964760172406441 0.5823375332044297 -0.020237748284127662
1920 0.9981613796213064 -2.6971913857584324 -0.4951878281319969
2317 -1.1117789330486898 -1.0118921456950578 -1.2113630292174777
1883 -0.1339048434464542 -0.47580461208672387 -1.8604768747143006
1928 1.04343390932389 0.1671158305486497 0.3612555684665886
2321 -1.1898938017224439 0.4973887175446151 0.37817012690439505
1924 -0.9583454335884432 -0.6625924537898126 -0.4904535284787713
2325 -2.090659821369473 0.7145760738323181 -0.23134544827092537
1887 -0.3759764376409206 1.047693066153595 0.003001733093999142
1891 0.24790142853185565 -0.5211522790355776 2.2691113630077573
1932 -2.0660373093633786 -0.2684748989068705 0.8462221486405059
1936 0.23010359099782984 0.6572556220225223 -1.151397296019642
1895 -2.1529424826836805 -0.7056757647645698 0.3183747766644589
1940 0.663231015944699 -0.4144908887121127 0.9678971477305666
1899 1.364811796485963 0.9120512552444886 -0.6250422267035852
1903 -0.7394852915855529 -0.468072994472339 0.43716451837385056
1944 -1.1335248693999256 -0.3221047908471065 -0.3909038175370944
1907 -0.02420077533717587 -0.309765286656804 0.23489146870555747
1948 -0.4234786492173704 0.4384329989922698 0.1255062827944375
2349 -0.05034151281159441 -0.4997050562699411 1.1830180199852984
2345 -1.0699400952951865 -0.3406609279123172 0.10292881721582385
1952 2.0714732125119646 -1.2941137432357634 -0.3615602182129496
1911 -1.0337253749683333 0.7373025464632378 -0.7077200010564938
1956 0.30892781606027747 0.19196552743737794 -0.47605117084004345
2353 0.8021280707377365 -0.6757766653557545 0.2700772055190035
1915 0.5259601300752833 -0.03391125424638735 0.32696819626725354
1919 -0.9301672665494195 1.7364547030962973 0.5475900850842419
1960 -0.054577469027235884 -0.9021304763766054 -0.048605918612030334
2357 1.567016205943527 -1.7825191163472003 -0.27859988320352913
1923 1.0067064290514343 -1.3596587809448233 -0.6973301645570327
2322 -0.9313002898280839 0.5571221644215408 -0.1726002867824513
2361 1.245146604158098 0.547310958154188 1.2881129720278466
2365 0.06819414581908836 -0.4558289045275328 0.9418099299391489
1927 -0.0595830570740532 -1.6650017039814462 -1.3781875638044725
1931 1.4924008416968448 0.3202467758848285 0.4062300229082178
2330 1.1137472761655323 -0.5141100082044378 -1.2301387314353558
2373 -0.9568755853789291 0.23636833054525827 -0.3360100300468531
1935 -0.4417512962305249 -2.375785858689301 -0.4799895117509193
2334 -0.8106015864949452 0.8675157841474571 1.0977093432934255
1939 0.7380654772861126 -1.7178881560874844 2.1631038333434325
1943 -1.17661523605357 1.4898817723209077 -0.02072214910759018
2381 0.703008579561935 1.207699638639311 1.054960980961728
2338 -0.10074500128523681 0.40636321721679874 -1.5291290456058206
1947 1.5787115919920542 -0.09338115895705777 1.447068251100021
2385 -0.6641991867591103 -0.17462776559448734 1.7212948594265407
2346 -0.8703480565574993 -0.43289924416670056 0.9408362705428911
1951 -0.10203987114968052 -0.4677275783782795 -0.365740147605313
1955 0.8426001948205263 2.131852325115094 -1.1289177047671357
2350 -1.670692385063934 0.7780386089501256 1.235976136034308
1959 -0.8515158137419906 -1.069185581934413 -1.718068020040312
2358 1.5408929569978727 -0.342594210974606 -0.8525590108825458
1968 0.9840160583140647 1.2631569860802703 -1.4893147858698292
1963 1.212406998946337 0.807545487970354 0.617138167482298
1967 0.8729534964738889 -1.0255034316716032 0.3248426075001011
2366 -0.8401222771507618 -1.2486820753472616 -0.20109185870935098
1971 -0.2835244545913177 1.9572047364618166 -0.3774378220152417
1972 -0.7428022481835539 -0.7933551803789666 0.5113227036566035
2370 -1.5339571747637932 -1.8812114250023548 2.4025703197337798
2013 -1.1766563508244579 0.5255960436966042 0.8462415241390019
1976 2.2994977054303276 -0.2730104881572065 1.0902247362011166
1975 0.7657611910053863 0.21130386168028897 0.051864690069295734
1980 0.7380902037582648 1.014591254009745 -0.3055374096054843
2374 0.43168526519988104 -1.094176986253708 -0.8990738101412875
1984 -0.48671445830782456 -0.24865159599682524 -0.6929070316244275
1979 -0.06605101361269586 -3.171587544449745 -1.9809114387644484
1983 -1.017031237799909 0.39580305808273036 0.07151802789732103
2382 -0.43941306958780246 0.8399529660059158 0.9109057245325348
2378 -1.627738541699875 0.16877182074498023 0.25899158429113894
1987 2.671737513200515 -0.8398090064007648 -0.42669850557794353
1988 0.7208652520278318 -0.5765725271981369 0.7538899593903612
1992 -0.1111591744804923 -0.23475759243335148 -0.2227458739371731
1991 -1.3427700495835766 0.9142819852273587 0.30664137115366424
1996 -1.042583288278617 1.05671196053056 -0.5232131760116357
1995 0.025377507616108054 -0.6765842002145732 1.4200526995131981
2394 1.3228696497999886 0.7786884919955752 -0.16165481131531415
1964 0.4470022082431005 -0.6804490035544589 0.5906185205195229
1999 1.237511273438691 0.4300325932329974 -0.16716812623047916
2000 2.371246501273584 -1.266175075848235 1.210423310646811
2398 0.9687869565487831 -1.0526674485428331 -1.6410454642088381
2005 -1.8718618366305069 -0.3648102869883183 -0.6642096598574179
2008 1.3412654140097477 0.09559985187677753 -1.4472062364650178
2006 2.2548586380734568 -0.915591624323141 0.2545482471584035
2009 0.14581405447239218 -0.4771089254343832 -2.327164674538692
2012 0.7444052314043962 0.6127068824934844 0.924096293378944
2016 0.642233049146339 -0.577875387971281 0.9563815134156438
2020 0.23778008701403988 -1.7966176620916467 -0.3824634018227894
2017 -0.5484512880821999 0.44312883924906604 -1.3964409726762632
2018 -0.042955438934152435 0.7104298056073198 -0.35871546910285457
2024 -0.0992221315603313 -0.5483029685428364 0.8955281118607687
2026 -0.26922133034220086 -1.1818374555496163 1.243377392669858
2028 -1.076911235051519 -0.1349230117516982 -0.6831677839695433
2032 1.0275152695952414 1.035359522556398 0.09280568075885766
2029 0.10580997504466333 0.2653231891492163 1.4486294371193744
2036 -0.9277135333529877 -1.5119707939141476 0.9731985161056181
2038 -1.0666366449073035 -0.11990869637611899 0.6069928464188349
2004 0.0642404397150345 -0.47246469558349063 -0.54737280729827
2040 1.1457947696828672 -0.5490482619221888 -0.08921840049338102
2003 -0.9658865111545644 1.051278181048691 0.07794086636662026
2048 2.6915448361457193 1.0006435990929474 -2.125374456419634
2044 -1.0822217880864164 -0.665614500348202 1.3493558444380775
2046 0.8867140137702271 0.3072265424334478 -0.06297200178778649
2007 1.4249595058517377 -0.0055561561220184305 -1.0394661108429422
2011 1.9473223606802008 1.8116125018125862 -0.4762829062746755
2052 0.17470472171215995 0.13923675336500527 -0.5726251141595794
2056 0.1662334104262307 -1.5883734562801701 -0.6536911842541397
2015 -0.901968131747517 0.11358524966435402 0.7790246950305635
2060 -0.9754793010073491 1.3659207371941207 -0.21588297356689948
2019 0.15426859360262313 -0.046319149357088384 -0.13424326764475458
2058 -0.7193920676901434 0.5660023040686567 -1.0343049895252276
2023 -0.33815659162613854 0.22803555839845488 -0.8926069882719759
2064 1.0429407523663274 -1.1619897814461468 -2.209307470092168
2027 -1.2637419831365007 0.12292299330061783 -0.6978048652949547
2068 -0.8279303728745301 -0.6277004515727223 1.3435986747974904
2072 -1.4891636919606197 0.03660287677717103 -1.1303482788057526
2035 0.011419903730017368 2.0417003883366203 1.3875836460157775
2031 0.49516011726282255 -0.6610565340377188 0.18163498706561548
2076 -0.4732659158328349 0.9432603136294767 0.026869898049661015
2077 -1.5714264941253224 0.22350821485636177 1.9045072450331169
2078 1.1314089795942355 1.5598444811778402 0.04695082793077501
2039 0.49749683594305155 -2.007215661768485 -0.7178030340673435
2080 -1.0127342809944555 1.3837418417260294 0.6418022018365256
2085 -2.031660742569527 -2.2245656835482306 -1.245403865008606
2043 -2.903052269662766 0.5103759844819792 -1.1663576390658263
2088 -0.5073559648887513 1.7393689923569804 -0.0503115028890508
2089 1.1944204201413522 -0.33133029323284013 0.17038702953808268
2047 0.5618159828349643 -0.13112959684543576 1.549092014582756
2051 0.5650896642101751 -0.16543178511864856 0.2629348546230963
2093 0.9050896276774619 -1.4515161831072474 0.029541647236739143
2055 0.8201816140769952 -0.11762804563250163 -2.494252580800173
2100 1.3411802204670857 -0.198130621415055 -0.10935182326274853
2059 0.49349813174154716 -0.5423896846318073 1.0286234447371723
2063 1.40054867106448 1.276527312878232 1.2641437038007435
2104 -0.9622180108692617 -0.404177196395223 -3.243737719071906
2105 1.0448341660664946 1.3896384375288007 0.17461624407037368
2067 0.16729172615196705 0.7674817460421816 -1.0123456777952875
2071 0.4333421080392927 -1.7033186866556866 0.8782153882372711
2075 0.7945522269338626 -0.0014481432228421194 0.05564156805771741
2081 1.2595510027317367 -0.8099920033900067 0.17216753730152012
2079 0.18951588204189315 -0.7877641408077702 -0.5392066608098084
2083 -1.9159225723377151 0.14831725495063564 -1.428661123343249
2084 1.0819163638142604 -1.3016650538440062 -1.2671914257630688
2090 0.17358363577430078 -0.3463632005078272 0.7755146224326
2086 -1.677244557998627 0.6117089844333633 1.2898148676037944
2087 0.9054168456811479 -0.8010716031203349 0.5285272056902698
2092 -0.399224848813739 -0.533721793372768 -0.07892752299256028
2091 0.6965028591074807 0.6776331656939585 -0.18124656175968157
2096 -0.02878486106703656 1.611531610350189 -0.5143101704026968
2094 0.12172403831044067 0.04153229416186389 0.7159498654832961
2095 0.024175243805235266 0.06877753542621254 0.06889132951814224
2102 -0.5458534846899897 -2.8594108496976536 -0.2772206888207108
2099 1.1028590610042837 0.8892054658207295 0.6841194192769928
2103 -0.6828725954273823 0.8485968324817323 -0.2234036943395763
2145 -1.6445666720455054 0.07867857530401172 -0.5471318551475153
2108 -0.6797094706691051 -2.3705913924143656 -0.2657441376951987
2112 0.1963795256406003 1.1835179881696116 1.9967091234804086
2107 1.8985697101795147 1.992265275655499 0.4907427985938521
2116 -1.4268702458460736 -0.2300855984552996 1.8987117081082858
2111 0.3853296972457846 -0.6575384012990473 0.1094569596631345
2115 -0.3426265416317775 -1.624365523375997 1.0221417029023987
2121 0.790567242431287 0.22637714969314465 -0.18624323750854482
2120 1.1732180961400116 0.1311245735933594 -0.9333863878869461
2119 -0.4484345298975196 0.30920277417078584 1.7676988986785902
2122 -0.1238010965702824 0.27452242488930295 -0.49842967890606976
2128 -1.5974968981525746 -0.9470062505368406 -0.9248596104534055
2124 0.9769229791097713 0.6261717362146212 -0.01673781212564802
2123 -2.0780531162450395 -0.5584463531299212 -0.6464972019806352
2126 -0.6144475850293767 -1.074014712934807 -0.5540673926201672
2130 0.7426273684840559 0.29102690690503036 1.572281066323845
2132 -0.8544375732228133 -1.9676462602475544 -1.2989253261843854
2131 0.9549515134078667 0.19732737174219436 0.6785420033167723
2127 1.5547233239617122 -2.11606256598438 -0.2320705326890361
2136 -0.7446016872158506 0.6244273317205189 -0.9460942509606514
2140 0.4937308218791019 1.2490938007028736 -0.421543508502877
2135 1.878664124130513 0.8927490374549 -1.2405386053059526
2138 -2.1206463353505636 -0.9824418431794849 -0.4854124789244235
2144 -0.10950388914890996 0.8256867569608459 0.6595117627019338
2143 0.021348935820242027 -0.05377473806217411 -0.3340270514272649
2148 0.3890298388453395 -1.3432550924829387 -0.3787813467612357
2152 -0.24070216157008933 -0.5021075452726375 -1.1634938892810895
2147 0.5957449411502507 -1.041041467685982 0.8044566372661174
2150 -0.9978693113143812 -0.7786602281735244 -1.6309583682747533
2156 -0.6244443631201372 0.1013791537241823 -1.9208500479249164
2151 -1.1754080079666822 2.8419845032031827 -0.46647598194192524
2155 -1.4139611476656722 1.5972217670877866 1.074654524028218
2158 -0.6235309646288928 1.228233642848006 -0.9492699823637519
2160 -1.642451883236382 0.40549561030213904 0.036894803971988695
2162 -1.3950390098102095 0.41193623936010615 0.19955483319822404
2165 1.361883142442603 1.666775534646513 1.163302470213417
2168 0.6987381026177412 0.33654346606331675 -1.5581655473260685
2164 -0.8598089261875292 0.04944881802201239 -1.4854336286753564
2161 -0.8070571948529179 1.0677022813252217 0.7834309990339676
2170 0.4630036081509428 -0.9122525284481338 -0.25704266377076757
2169 0.791227184340271 -0.3039588196863679 1.023325126228784
2166 0.3762135957374016 -0.5086283764970387 0.9487973044045835
2172 -0.4043387070660376 -1.4034996985461319 -0.6430508567548446
2174 -0.658588017106147 0.14778975875590228 -0.2734054196464473
2176 -0.3108517766916642 -0.22156845188737298 -0.23518973234880183
2180 -0.4758572232787935 0.4544853443873472 -0.17233460814940058
2139 -0.5873211979642237 1.5501319864431213 1.3412339848092372
2178 0.605878423008347 0.09621332775239545 0.1580889044368804
2181 -0.9225740010013709 0.25354024295160343 0.344401801103859
2184 1.5842223947793432 -1.4794014848080064 -0.48593678245112776
2189 -0.22493691028347662 -0.5724978534511589 -0.8278107323738745
2185 -0.5501575408282956 0.9947268413652024 0.8179987446294122
2188 0.44338762701427153 -0.516259111259956 -0.9848753873597406
2192 1.0587745897763725 0.9758611621584367 -0.5781451651586734
2190 -0.692760166558931 0.01014371853542089 -0.1092220002748029
2196 0.07745764184453925 -0.5672247599249873 0.5315289932845519
2194 0.0721637165731921 -0.11453708512650349 -0.11971054595157403
2197 0.3921230488581119 -0.366429298437633 -0.29505000231150463
2159 0.33334664065488817 0.27088846827023283 -1.4435186707265555
2198 -1.1594713157181933 0.28007153512637095 -0.13070127920214328
2200 0.031136320050055215 -1.8239174731764793 -0.6513955746519541
2205 -0.8617054542035311 -0.21767306266312725 0.8750481825991955
2163 0.9245263026368554 0.29099225804948997 -0.9343574139990274
2208 -0.16242383356336731 -2.4843382513905183 -0.0377233390030852
2204 -1.4071469226658306 1.0335644495958243 0.7066448351074947
2167 0.23578089515023318 0.7104298007352949 -2.112692823035141
2209 -1.5489338330100852 0.3117928349421879 -0.8935382021584235
2171 -0.7868732577614619 1.5543915384413112 -1.2448855872854345
2212 -0.5906200578439642 -0.4973330691470474 -1.1752134077981065
2217 0.00015420821084865754 -0.6423194192807696 -2.121230802776072
2213 0.2020356115005396 -1.5437987072849515 0.22255793735349957
2175 -0.23240699067563345 -1.3568252281829705 0.47933600381224795
2216 0.5406843425308738 -0.9543679676859309 -1.630060212539925
2220 -0.5300105303139835 -1.4708360361712247 -0.9299073915599
2179 -0.5595754636609767 -0.27490002664281377 -0.6211689853800537
2183 0.9783049075340217 -0.5984853574155037 1.028014346886528
2224 1.3784672506269695 -2.367024887632257 0.5902913225678885
2187 0.25120372722526907 0.02305946484183708 0.27998746922308254
2228 0.15358170857273923 -0.6337483942838195 -0.3638441149222877
2232 0.5705976191858326 -0.5255241512514829 -1.512449126273411
2233 -0.6605870431186428 -0.3588749809029801 1.08608243935598
2191 -1.3845268262176131 0.9472390052995738 -0.7834794198930752
2236 -1.1908650755566326 -0.15852196304706673 -0.8105278216473096
2195 0.14409950279139516 -0.09347643771580483 0.6355097839035878
2199 -0.04996329312097823 1.523346344190615 2.6476584405483385
2240 -1.32430611738106 -0.5210797458493192 -0.5792196230892006
2202 -0.8813249790748459 -1.1022740623156382 -0.8861773425379866
2241 -0.826024888172828 -0.68129929839065 -0.5271359936726959
2245 1.8215286473225976 1.5726561987874101 -0.48906724988080214
2203 -0.1217854344826712 0.35827185714377136 -2.0532878917066353
2206 -1.034018333343916 -0.7411863436785473 -0.6879261447837713
2249 -0.6479552699877636 0.057140401582107904 0.051660710643251964
2210 -0.9280484160118535 1.6419007898400126 0.12927008576306306
2207 -0.18426437382209704 0.16714267955295162 -0.7435830566368539
2211 0.2913291065550052 -0.03747467637116409 0.6339952455782303
2214 0.6400163137805026 0.29838473026615187 -0.28657317452108705
2253 -0.879589030611692 -1.799354677290456 2.3095449629829794
2215 0.019827011766175528 -0.21682657829803648 0.7588325280345011
2222 -0.16339554850532148 0.5230544142295802 -1.025281348396447
2218 -0.7398330909486233 -0.3672666262342988 0.38320058411054675
2261 -0.5760636921474106 -0.21739841735737866 -0.012807772505541083
2219 0.19980679509845634 -0.27824260336152046 -1.0177103357567445
2223 -0.393866242676943 -2.0057645829304924 -1.2553086508139386
2265 -0.4041346758387253 1.6505667045543748 -1.8371097450762195
2269 -0.4125982156185681 1.7546496407934218 -0.01979823287989389
2227 -0.4308941625938527 0.6320898416288447 1.080032424461067
2231 -0.4668545584073583 -1.212843421650061 0.7362848708387496
2235 -1.2788299780681764 1.8471543257772522 4.2087681674382855
2238 -2.149253006021334 0.004746006470035489 -0.1096246692311734
2277 -1.5656023923935134 1.078302082121568 -0.60765259647655
2234 -0.06666290780815184 0.755847713153003 -1.6535247782702631
2239 -1.4595141461571006 0.5570218740325001 1.0171425381327985
2242 1.3674866036737858 1.147113130825776 -1.293568305310027
2248 0.5590620126330428 -1.56661445551746 -1.408185420545382
2243 -0.6700787663819314 -1.7871585893769746 0.08226009444484805
2246 -1.565614310641716 -0.6137613244657897 -0.5617122669776154
2247 1.2919097756018518 0.2735696811846142 0.17508278260192794
2251 -0.8464677864729129 -2.097005402541365 -1.4245879175256433
2252 -0.5816143373736813 -0.3312855723562618 0.1627374214905205
2254 -0.9835831058947475 -1.0470710382200892 0.9599598942257406
2256 -0.052498355973741286 -0.6696101551707436 0.35178686676196924
2255 1.5730279557204316 0.16490864066790936 -0.8244968650264363
2260 -0.84332388426463 -1.9679035279749968 -0.05086522719401805
2262 -1.113257971128634 0.2623156165899967 0.590607379765839
2263 0.2075517242195872 -0.20205124898021382 -0.4266358098317653
2264 -2.2586875633881 -1.5020084205686672 -0.9109479082007521
2259 2.1838165767946704 -1.2096036649188544 0.0745322824080245
2268 -1.0984532850034823 -0.427740107340501 0.7681586544571062
2267 0.07530370758333002 -0.15032528198425318 -1.2043120740403532
2272 -1.0503437741617019 -0.08668748476868599 0.005137677265358806
2274 0.17528871908706176 2.3451007368023875 0.5852206368563626
2276 -1.001731810084634 -1.1475072543243845 -0.7251502070569834
2271 0.8722837324212596 0.05551711716292659 -0.24525058096867286
2275 0.48038648064627226 -0.07931346559047005 -0.026620576499868265
2278 -0.3044033275393 1.2189673454362735 3.524969629477765
2244 0.8930193278012682 -1.6095435452591536 -0.28885660164456894
2280 0.18963263094077645 -0.9044908775569092 0.2867541163034476
2279 0.5040741005558953 0.4776744547580323 0.9412414947217772
2285 -0.35554309400067186 -1.2084399853141166 0.24203752570138487
2288 -0.09180115339809784 2.5073203657666085 0.9617079679909072
2281 -0.34171626723600224 -1.214672387338447 1.5337039190492954
2286 -0.134546855636381 0.8348341718646994 0.09690497058692173
2292 -0.7332478516417537 -1.326678887622167 1.6696680349507296
2293 -1.098250628896838 -0.5353261689569219 -0.37184599692948717
2297 -0.5036108735605135 1.2756552154886465 0.005666035281271027
2296 0.17025815886605422 -0.8976813006635017 0.7334336757780386
2300 -0.2266950230607858 0.006555646728283575 0.6042147618311517
2298 -0.6914575424997592 -0.2559419630676672 0.7449405977092448
2301 -0.3038603588107254 0.08470910810255187 -0.560322780294688
2302 -1.3624714187587899 0.07604331551775806 1.5298410629707961
2304 1.312354208913082 -0.7521251843600733 -0.22126822750023997
2308 0.9731763806464258 0.6368928470741885 -0.4981017102649118
2312 -0.6008556131731007 0.9956417454306375 0.49513904839922623
2316 -1.278021867129368 0.6252013429567481 -1.3170955004545764
2318 -0.350188561094094 0.5856675398438627 -1.1821031608593966
2284 -2.1525300527969393 -1.6387692950723214 -0.8146654555837186
2320 -1.8448839447817262 0.39498811267932377 0.1940350675502683
2283 -0.8846607717500949 0.22049457270591716 0.36351987276680453
2328 -1.4425872715700694 -2.498249687057737 -0.4365522645043186
2324 0.09241016416126566 -1.8616303957581952 0.9673692696096132
2329 0.47487710789949905 1.0572012297172075 0.07943550172442329
2287 1.3861132028842722 -0.2148068748156495 -0.3976916788856541
2291 -0.7973492986043411 -0.8890653513230482 -0.2564567454719929
2332 -1.0825475730522482 0.6125620831564025 -0.14668500759173161
2337 0.2712442658269781 1.4252693231901445 -0.18543686265314976
2333 -0.9021568683910327 -1.127565542240667 0.2446454873859389
2336 0.20072916791803114 0.23057921914608007 3.282130845476818
2295 -0.05308018709411768 0.5312462602993493 -0.7515817215633422
2340 0.7581855996290313 1.077880521630556 0.04974829852542634
2341 -0.05207257889251545 -0.0034415195872490915 0.49312558114006766
2299 -0.7962680265912597 0.914176522049538 0.1791868821480154
2303 0.5127039682933525 0.8129626218259878 0.9361537278970363
2344 -1.4268413026487643 0.283132099924166 2.7020336363370205
2307 0.7903584108037953 2.251739069092765 0.332861457936304
2348 1.0845806431094085 1.693958483147309 0.8058554945016623
2352 1.2246673562525743 1.0735132370712526 -0.6461070199680249
2311 -1.2749332699014926 -0.0146940573802033 -0.8100062793095659
2356 1.1249437672168927 2.563660487935871 0.6662522115819767
2315 -0.16915754041879552 -0.7950538592473334 -0.20360123472141872
2319 0.20410801269673753 -0.3673906256726484 -0.22684590352273715
2360 -1.1876157582009121 -0.6019836159910205 0.21238994004708311
2323 -0.5928404603064853 -0.8540893788850402 0.37627885474141126
2326 0.5397205867617647 -1.5899318597792993 1.3774143716022202
2369 -0.208982562372824 -0.3851703895380784 -0.45337071678990276
2327 -0.9193407431305596 0.9015417607281284 -0.8203987884615234
2331 0.7732541610068167 0.7446928048498983 0.292455303591567
2377 -0.6849219803821904 1.1241884190139448 -0.4644955388901948
2335 0.18646820022436772 1.499892146127715 -1.4255686214542969
2342 -2.091542273642006 -1.0762540996610364 0.8249781256000065
2339 1.2687838428789113 0.8474710879094683 -0.05516983161169349
2343 -0.7503994214769126 -0.5991606566133061 0.4971522702916511
2389 -0.318155288784992 -0.7281277721886866 0.680212771661598
2347 -0.6556031164324754 -0.07704570797749884 -0.7848258348850736
2354 1.1550320883837164 -0.09676633649449518 0.7201676996511583
2393 1.7459039165964243 0.5159794478247843 0.926554608447164
2351 -0.9362978910164294 0.5874099342424023 2.049428497661286
2355 0.48105357990161296 0.3598889379522266 0.1432128587801983
2397 -0.40915137538107876 0.5691674755262325 -1.2703484651868049
2359 -1.5308791400731685 -0.6901434724583213 0.10476542914982402
2362 0.5946372966822723 1.180338670772002 0.11683746226323896
2363 0.6014761511542845 0.01935153459958908 -0.7193674552316529
2368 0.04483768139716474 -0.852421441231713 -0.3776134774812633
2367 1.1023446513321984 -0.1898191631853354 -0.4825257389147557
2371 -2.7134359064489053 -0.6535893053811648 -0.8621129558929213
2372 1.147401362794602 -1.1949525837594421 0.9149407163125479
2376 -0.347558540910176 -0.3681021784424722 -0.3634466790126419
2380 0.88554855442167 -0.4409266580897032 -0.3261731711987381
2375 -0.6400928573454427 -0.7759242648631797 0.22604204921107438
2379 0.7128223744523108 1.0720020633371221 -0.4491877532017573
2383 1.4284874321046865 -0.750441647432833 0.27467182950106095
2384 0.7003729936497192 2.1895001778054755 -0.1044783685709986
2386 -1.1526101344472846 -0.938318324528545 1.4418994761332096
2387 1.2672221501846224 -0.536377574656579 3.0283747167551
2388 0.8506229458682119 -0.8928033490077607 0.5821411975484236
2392 -1.844260061765669 1.612181229648685 1.473121029986533
2390 0.687585566548174 -0.8828697976793437 0.5867512313730184
2391 0.49511639668526414 -0.5646693889601381 -0.036655278499949824
2396 0.4840334978560586 0.200141824505588 -0.4222355214165056
2395 -0.9934445968987762 -1.0112011445866753 0.6975353194110662
2364 0.18535698214219584 0.8495505915311504 0.635124263991417
2400 0.597086039287066 -1.0447059740590918 0.9088855261509498
2399 0.2727294020532449 -0.5803516417493628 0.21081861596570758
2402 -0.6949194456587633 1.1700466295654277 0.15177343534614607
2408 2.170681885014907 -0.5057279760341034 0.1922609895475481
2404 0.23337160070751026 1.0720122570865622 -0.7301544879269298
2406 1.1809488600169162 0.4507412204392106 -0.265938165325646
2410 -1.7843777922160367 2.462783777322631 0.3240030901981498
2412 0.702928644801255 -1.1747381770575123 -0.781712339829831
2416 1.6698272147253423 -1.7780307850135442 -0.15352068306871633
2414 1.0696670439373097 1.8733383402477362 -0.3606936360900632
2420 0.5315594853037403 1.3030182390223617 0.22861771252760302
2418 0.8931224849624405 -0.3020189721457329 1.1543728787960938
2422 -0.1529616221284978 -1.0300060429837863 0.7461357263765885
2424 -0.24583717628634505 0.5787751457706404 1.9239228201591885
2421 1.1033991146376771 -0.6050940729246018 -1.6873036577910392
2426 0.7683375953927184 0.021804509815273317 -1.6510224993025955
2428 -1.3654990996083078 -0.15818163356820686 1.9590387539414709
2432 -0.33510199332064305 -0.4343446313770954 -1.3091937214984493
2430 -1.9456094081948778 0.8588798189635548 -0.7503872148995867
2436 0.7692886985834381 0.27935443299075224 -0.5684928879737444
2434 -0.09867153031890341 -0.7148011066066625 -0.08911598668495499
2433 -0.29310834940427105 -0.572048821322323 0.5139513076167199
2438 -2.4272861155225693 -0.22710444593302453 0.22941805824145436
2440 1.0727997373161116 2.2951821529563414 -1.0865346927904207
2403 0.17203274384313536 -0.8918133961166219 0.33368247446242005
2445 -1.2563593335941383 -0.8690444321938107 1.431917266479172
2448 0.09478021926649793 -0.605805081040113 -0.29786255154990954
2442 -1.3679203512116598 1.3135639724815653 -0.42313025226230944
2441 -2.293085001395682 0.04673557895980737 0.9022423575253095
2407 -1.4615210209628393 -0.9804585897652706 1.5797369684662006
2444 -0.5429249265786489 -1.0912407771999368 -1.7552042152870342
2411 0.23329578252956498 -0.2799913306712739 0.6374991087764392
2449 0.9556363871292318 0.2205588716076498 0.2876586265918985
2452 0.037611301800558064 -0.17183817666794746 -0.4449050228043527
2453 0.9242480725985328 -0.35791420123327844 -0.5173405544179547
2415 1.0139991911638848 1.4843383839024684 0.8923727400739564
2456 1.1952688769026583 -0.9395384888971628 0.11716508735156048
2457 -0.3735675974152441 1.4882501334335514 -2.0605918789689315
2460 -1.1673944334609028 -0.1753947726358375 0.3479442328977646
2454 -0.6144723527199973 0.3409430551818686 1.934681670573087
2423 0.35432591968338795 -2.0382900443738774 0.02400894706209016
2419 0.5872149058752673 -0.12759078640149005 -0.8857446157536928
2461 -1.0619324714879632 -0.4040286092272859 0.7242402826117247
2464 -1.1106035178711262 -0.8626471455502965 0.4969165991225494
2427 -0.8917972899585243 -0.41319982020620255 -0.001701386688644926
2465 1.2998918345131365 1.4670616902346838 0.6045004767822951
2468 -0.6473116695067014 2.969277686930586 1.7268918971504117
2472 1.537157468558563 -2.675476808984694 -0.4168639245778852
2466 -1.1920000339405876 -1.23454071734959 0.16115066478154982
2469 0.38753319680616766 2.278953523623168 0.34884993545229726
2431 -0.2834160236857948 -0.9517918292707147 -0.4989351568260903
2473 0.5981124579683152 -0.06623246444102304 0.7081123114725684
2476 0.973426903693056 0.051833654147998 -0.9463167595461733
2435 -0.34898523313190505 1.271074925995133 1.319870408617332
2474 0.2771730835538154 -0.031783698615637006 -1.1635653011048728
2439 -1.0261859148075603 -0.16669248735334216 2.092675267941869
2477 0.922094886143805 -0.49368618222165245 0.028129895734390866
2480 -0.012124687175582346 1.3206343403893703 0.39975798681668334
2478 -0.01946341912374708 1.0186191699988008 0.03331587753140706
2443 1.5834961100150515 0.4806113592100955 1.083748740571818
2485 -0.03304402465942786 -2.287547552767215 -0.18558450668986404
2447 -0.4652993757349056 2.3381137703686465 -0.538013604648681
2481 1.9314262089630856 -0.46651117867160125 -0.8577564074808367
2446 -1.5977037870155963 -1.4092694315857064 0.18925156200233625
2450 -0.6863711454650944 0.6484011273649039 0.4391615447099817
2451 -0.22351277018355806 -0.11325156298271165 -1.115632140758111
2489 0.35315916604885117 0.36236650449329977 -1.2145998428129297
2493 0.8953317237892491 -0.7849620434756556 0.0011987709767603326
2455 -2.0451924189418387 0.6931924364687132 -0.029558942539952632
2497 -0.9204232352810784 -1.4768568150230004 -1.6539939469182743
2458 1.267191850758568 1.4048871639901068 -0.9381935774825867
2462 1.4737988419584924 0.1908958768736477 -1.28436018442063
2459 -0.3837560312224414 -0.7344735962386105 0.39114580417119066
2463 -0.3728783022883894 0.6386273477390512 0.13221318431402326
2501 0.8858922412265879 0.6825429384806849 -0.0975259821127814
2467 -0.8446143134985284 -1.1410046311964475 -0.3084810429411021
2505 1.0648003503949182 -0.5090433338149648 0.056766619324928956
2509 0.47794182588541106 -0.4947144380627149 1.1852895524548277
2512 0.7807436833910124 0.37979535393131775 0.00992581368067139
2470 2.5435641081417124 0.9080920050427307 -1.800693017148768
2471 -0.3290281084719165 -0.4100061007978888 0.4494054404143898
2513 -0.8559092898114212 -0.27645631706105106 0.7501870900074282
2475 -1.078810864335287 1.3116398755121192 1.6196270356122158
2479 -1.103273083172545 -0.7092604949659865 0.016988363079920507
2517 -0.9309040135183531 -0.1987858911451686 0.736934908169821
2488 -1.218407161556141 0.43837290532319917 0.11655773666246344
2482 1.403028003956042 0.7099984875151181 0.34486758520102045
2483 0.2901284405615328 -0.8820738648926564 -2.050612466653054
2525 0.5979625354597453 0.8059815085900477 1.1112117502941679
2487 0.1395879281286433 -1.6435027803948155 0.8790571482299286
2492 -0.7185203574310215 -0.46333501127712856 -0.031002271016141066
2486 0.6606091711978352 0.5307849147806186 1.016032280646289
2490 0.8760670928934471 0.02614519546146893 2.3439307837171666
2491 -0.07604487640103971 0.2482978228835939 -0.2473699807620855
2529 0.5627033677633066 -1.5298149141600597 -1.1959016505114803
2500 -0.16099278892858546 -0.06193601116261676 0.686570955042188
2496 0.32744771427054997 -1.1726160393003042 -1.0936493617300476
2533 -0.5615823227673851 1.0545223881365664 -1.2869144378330253
2494 0.4010656445712707 -0.06614949296735542 -0.016416380359676654
2495 -0.4346493258953254 -0.706607049046444 -1.4019368638398806
2537 -0.5429189003977897 0.36119586613916266 0.8221793387670994
2504 1.1283354138572914 0.46930564333212 1.7368603204811437
2498 -0.22413701525386637 -0.6258402471764652 -1.1150250596788467
2499 0.859586697699391 0.24529452330989499 -2.3069027417655037
2502 -1.7317623730161258 0.7035414823679765 0.6698570015928261
2503 -0.3932691296601911 0.35194422787281504 -1.4509304240789025
2541 -0.28166450966694967 0.3378394938196807 1.6022629117797367
2508 -0.4891785465967698 -0.22553847676123404 0.6469915903360584
2506 0.1226997268133039 0.927260878399887 -0.2455238106980577
2507 -0.6236883458276988 1.3942204852859765 0.612866824091707
2549 1.353963454842789 1.8274901852813759 0.5761686090603183
2545 0.25455030109588267 0.31378450618944953 2.1704235721959595
2516 -1.0668678565131293 -0.7818034065413494 -0.8314581415184396
2510 -1.3808688591907028 0.8097425553034083 -1.498610492260551
2511 -1.1117895966007598 1.5885660012131255 2.131835647838393
2553 -0.6532974728459134 -1.9801494139750355 0.5395160538900176
2515 -0.5186417918298999 1.4203554402808125 2.245571993212676
2514 0.5587377168748583 -1.1411743458360122 -1.3086473731868062
2484 1.9660985905803883 -1.5599632941405313 0.92430811911271
2521 -0.09163866713736009 -1.9999489363533323 0.3375203837538661
2520 -2.1089704511943115 -0.2230665913504029 0.9035390367657413
2518 0.29335301049908646 1.4346702763472425 -0.7246646124948961
2519 0.6273412796239354 -0.47863538359166546 1.153341210246586
2557 -1.051347666610572 0.6148008125130068 -0.1102438697759591
2522 0.6811164492918547 -0.4857663445519948 -0.8723420435492297
2528 0.7473945724162975 1.346038381206946 1.5278084917771317
2523 1.781547312216682 -0.18306873726558145 0.4596042334741363
2526 0.15330730399698977 0.5240891354126044 1.4971250207081217
2530 -0.4781931743973073 0.9360370047093555 -1.8887380184264912
2532 -0.41054686710051846 -0.4707943870798597 -0.6180880194188327
2536 -0.5879776756387933 -0.15317240044317704 1.511984410556287
2534 0.38323208414969756 -0.45927360284577956 -0.21068434230360225
2540 0.22326226320974354 0.1463557476362603 0.11026393849768988
2535 -0.33859959738841683 -1.074604868219151 0.8249394536906418
2538 1.0382488308378006 0.18086299484885895 -2.258399386018561
2542 0.09871941473769927 -0.28602693353600556 -0.4486594555876415
2544 1.741732522603059 -1.3498383536590661 -0.05937686000464103
2539 0.33832228168739165 0.4161758014825635 -0.044503257713334125
2546 0.1324187476272248 -0.2374863208189778 -0.6215595135784077
2548 0.0822967707732028 0.8627162690168023 0.5205733259188969
2552 0.6952445317414923 0.6479007094830113 -0.10029275819351607
2547 1.6530451308620793 1.107680243204381 -0.9053120106165112
2550 0.10288623219639337 0.14765439971981378 1.6702834751133522
2556 -0.6750230870643161 -1.062498500187046 0.977623881101068
2554 0.5121067358864084 0.2071525944903379 -1.510519063291065
2551 -1.038454317020634 0.577142928712478 -0.5214995883015522
2524 -1.3190600584548666 1.4567050694282333 0.7130089413790638
2558 -0.0555324252291848 -1.4891068293195882 -0.9896783341777625
2560 0.9781845655705578 -0.31704955340100865 1.4425467311244664
2565 1.7075840187658775 -0.0868457937884867 -1.1793040956945757
2568 -0.1351598199307185 0.4660619634711007 -0.2934622891217209
2562 -2.186739524205259 -0.6078015297816595 -0.5207740640887085
2561 -1.8615264648071321 -0.8758709814942249 -0.5847680625526864
2531 0.45902596037573634 -0.23162145382036592 0.7955992745777981
2527 -0.7497490230325007 -0.2678630356239525 -0.37348932020708225
2566 -1.561833400529468 0.1043064701177887 0.7493777773048897
2569 -0.8744059410710708 -0.4952099873095065 -1.0699900941512144
2570 -0.9373708177809588 -1.5452838690053423 1.6054611449292713
2572 0.503945660676847 0.6258807447844833 0.14575090597538898
2576 -0.11864095386833272 -0.38601390741587005 0.4182717143252076
2573 1.1325649667927449 0.011358175881373606 0.3013306217219538
2574 -1.2947071803017978 0.04174821464553688 -1.2948939726065836
2577 -0.42213963890329126 -0.14088062466068274 0.4124930599020082
2580 -1.5868024089047024 -0.05890296639528839 0.5465330060299481
2543 0.35784535124547906 -1.2662771903699046 -0.4768017548556253
2578 -1.0808766040672397 0.60438220619875 0.7639510420832785
2581 0.10714918147625611 -0.11264117938171068 0.31542792234960043
2582 -0.08685399975160334 -1.08251547736656 1.5055897018324431
2584 0.12000265324576875 1.312070186706113 -2.929109814876382
2585 0.16853818868313591 1.2361185385555715 -0.844277186844231
2586 -0.7836056120427191 -2.3564402609807336 0.2688908205704261
2588 -1.3055648528412005 0.020542394573885465 -0.4996056096835063
2592 -1.2925523799765577 -1.0948258610619568 -0.3207189374121861
2589 1.7353931814084138 -0.26847474458070475 0.2755300034178627
2555 -0.7286822641594273 0.9045664259913603 1.8267256516490336
2590 -0.20029525989082458 -0.8158290669593268 -0.1785020885410766
2593 -0.2705271341345859 -1.1899762373460547 -0.04901779768810262
2596 1.430336307290045 0.3670884103229226 -1.4356277348601227
2594 -0.4305873428027658 0.8407329521966028 -0.3354095587591594
2564 0.5339292671694076 0.86619843453096 -0.9165887583043271
2559 -0.7729616383736884 0.21928247424682337 1.0719263802877237
2597 1.1646899225191933 0.9714637127787045 0.11571359909514436
2598 1.1611075918047502 0.7336189807200121 -0.17994476958013703
2600 -0.13476010101520544 0.16675397752498183 -0.1471472110114604
2563 0.5801906687785726 -1.0322103997513976 -0.0926298251630694
2605 0.46827000878228064 -0.3762093051832337 0.5929296520289055
2608 -0.6732512282419321 -0.08828433795252724 0.2458777114641719
2601 -0.4330713410035168 0.8851921135710045 -0.9519577218897168
2567 1.9217396707176018 0.15204057472918933 -0.444305574624448
2571 2.193095918470896 -0.5154793998607162 1.2146866748359018
2609 -1.034587193208822 -1.2387770903975541 -0.32708567455357435
2612 -0.9757073392359304 -0.17934608441058197 1.253690595462963
2613 -0.05752348134377848 0.8236883339762385 -0.8884756404322066
2575 0.7249287435737074 -0.7697609407677886 0.33949493041010714
2617 -2.658677159193455 0.700721967792666 -1.707986847595037
2616 0.12187352209248412 -1.105886080573553 -0.9858060562716985
2579 -1.4438416087903023 0.0047886444491976946 -0.17901009492428088
2583 -1.0029757978624085 0.455101361148961 0.07187742664254826
2621 0.8317948510205901 -0.2285610591307394 -1.7944771205480246
2624 -1.8080782316661232 -1.969330352263916 0.3911304442224761
2587 0.9574326841953661 0.5359499642135401 -0.643568567723883
2625 -1.3078976721397764 -0.11099167384753832 0.5641716970872478
2629 0.5561887933463743 -1.417200725926517 0.6308698380137391
2628 -1.563438688284296 -0.14912151238219082 -0.22836767754832032
2632 -0.45990106819864035 -0.8440639573173321 -0.310957581212709
2591 -0.5154028572936487 -1.2510417908043507 0.5524342871217466
2633 -0.7329266571816302 -0.6942339660399719 -0.08806020286244927
2636 0.6544968853867776 2.7579288401366053 1.1076649828704583
2595 -0.5192285728034893 0.7848382308403425 0.11255886782015144
2599 -0.28123443783222835 0.10710138878538106 -2.26927302988445
2637 -0.09887953421805198 -0.06904777056032056 -1.1645032393784973
2640 0.6793291413802471 0.16882702304703728 0.14977103343138046
2604 -2.2563788924375374 -1.9250449072854208 -0.6979261728309729
2602 1.4226477935254227 0.6668011416413938 -1.5644272563751487
2603 1.9662390635446305 0.3221592653204713 1.0373253152275064
2645 0.007530356964845625 0.2741881755214545 0.3996015334187383
2641 -0.1520952260169041 -2.233569730113834 1.2485572696968499
2607 -0.3659749918197477 -0.8620430162014525 -0.08358989997654728
2606 0.8353190998075919 0.340741594431585 1.3795527505947973
2610 0.25516040853724203 0.7119970999804927 -0.15192052964019823
2611 -1.607387159790284 -0.8230718026060426 0.5739406292582451
2649 -1.1041969332160047 -0.5984926417866404 0.5425322244705223
2620 0.6088199215306652 -1.3674143531199596 -0.3649288297736334
2653 1.1847465312627925 -1.3112522669377698 0.5224077610861327
2614 -0.8038858970555081 0.6312661453263536 -1.5172216372928813
2615 -1.000768940913617 -1.6267168944887236 -1.2324073983907116
2657 0.875463867692661 -0.9281664104314519 -0.30047576218482386
2618 -0.8658824074770449 -0.7169738667789609 -0.7924590581797831
2622 0.31556519080277706 -1.1474286099597415 -0.5072184053698748
2619 2.05334934567637 -0.428514513711776 0.5119067668307271
2623 -0.7019214026136634 -0.890156493787808 -1.373406537433063
2661 1.1892470612781212 -0.6295358002456908 0.31425461121848414
2626 2.432265311083104 -0.5786549329354466 -1.1576159054437474
2627 0.3332261543399814 0.662582243780809 0.2618704498821289
2665 1.5305040981606763 1.1132964978832616 0.08239375784584384
2669 -1.8006853027529441 0.04488870288329172 0.21572512469185637
2630 -1.243770274688257 1.0750580335973308 2.2504180899822273
2631 0.44080725666578924 0.18974418335861665 -0.16515440503500928
2673 -0.24530457240209913 0.6376671084668027 1.530560470047993
2634 -1.1172228429828475 1.2616374564298165 -0.8138589714507667
2635 -0.8438698357659355 -0.20800118327238698 -0.953898651880143
2638 0.21550047128930783 -1.3009357542642475 0.3177107412382694
2639 1.6889910728159765 0.8625684142665336 -2.177271782682203
2677 -1.5114438267265045 -0.4609974908098685 -0.17688435026972205
2642 -0.7837202367916448 1.7041058211249356 1.4974009779508695
2648 0.14391597224028108 -0.18850587927421686 1.2130968854397217
2643 0.5514439245279134 -1.2650284917936543 -0.5308402471748398
2646 -0.8364817894539844 -0.7887920646289962 -0.12257459908714204
2647 0.1146898824192408 -0.2531416455803191 1.4447614061022258
2650 -2.5771205935803505 0.251936650684186 -0.3354438558775156
2652 -0.43892819258895804 -0.5710611996870594 -0.9534293676086236
2651 -0.20914508175105653 -1.3535023913739932 0.5156461778587017
2656 -0.40209411793101957 -0.9443865566011588 0.4649389014195554
2654 -0.016936955709545204 1.6129350646272393 0.6616626221731298
2660 -0.4160003914302686 1.887593835833607 1.1517181514981307
2655 0.08128559134479288 -1.161927881233747 1.6059389425874337
2658 -0.8964752792255626 1.4367339906589054 -0.7144658939234738
2662 0.7628572880519168 0.7421857354275552 0.042419546942981515
2664 0.12183595208630775 1.0913609833174174 -0.9524695505254569
2659 2.694105803882283 -0.2914298110660474 -0.4614196812137534
2663 0.8497209402614476 0.4117821486227176 -0.34366622082006304
2666 0.5670477465748016 0.23289251553303272 0.47645005765022697
2667 -0.27744999353152516 1.2580344597789177 0.546550763714904
2668 1.4342943194479965 -0.9963689109294367 0.9105317525302224
2672 0.047619646510779004 2.1946293082249255 1.08408229181676
2670 -1.4570370014744778 -2.6069553317806857 -0.6189291162536519
2676 -1.2867588241455803 -0.3532017807469138 0.43687421953035205
2671 -1.716998848882783 -0.24985532820427236 -1.380387888613253
2674 1.6152439144469424 0.21377910251212137 0.19996952428027331
2644 0.6158759298330243 -0.32773174679800493 1.4019929008795178
2675 -1.029495445864911 -0.839531947724226 -0.5561277700830161
2678 1.0044785798792777 -0.655547506784344 0.3930957941219436
2680 -0.9870158111804029 -0.8717460900261178 0.11840307442938426
2679 0.23216034545557837 1.9925962680756142 1.0575165116021832
2685 0.8446462422620168 -1.0514720818761403 0.9554212998892209
2682 -1.3296862953603412 -2.0910888321440355 0.7720814075883932
2688 0.8015293469559163 -2.6450409523356 1.1653189543959777
2684 1.4421853008691403 0.8194229847864871 -0.8639334261803915
2686 0.31451167286831155 -0.017379735755104805 -0.22729857335366338
2689 1.0911283833010685 -0.547843052271794 -0.5487394051346506
2690 0.19191172154002922 -0.005733671997564738 2.382361288594579
2692 0.6073974045513137 -0.6392804320177519 0.6653550177738153
2693 -0.44968865316969464 -0.4344994204673638 0.5997582011712379
2697 0.08736198322727662 -0.06731253361977697 -0.1663059747704471
2696 -0.03311432080065292 1.3344678115812265 1.2164696238541315
2694 -2.7913056676940147 -0.6097778996433364 -0.41761127469947934
2700 -0.09505997276765032 -1.172018141502038 0.5347680559067641
2701 0.28907034433685547 -0.5509106756140277 0.6650610777048636
2698 0.21077581339974902 -0.6444853069212548 0.10222893058736504
2704 0.614489120425439 -2.01615417942691 1.1368828144758203
2702 -1.688639123025301 -1.5958505420357174 0.7480571780069817
2705 0.08466458921239807 2.477740076179894 -0.766648034395739
2706 0.21242301244300643 -0.9404848233280971 0.4346054574864395
2708 0.6553134932781258 -1.314264263092902 0.9058529821200519
2712 0.359847438067742 -0.5854459450398986 -0.8401815508783119
2709 -0.26494954621917627 1.2744298769480693 0.6427867455755074
2713 0.8740021111594207 -1.2421838793510542 0.9314458509173655
2710 2.0614292051063385 0.2968707496054637 -0.2428713452675563
2716 0.5948401193210351 0.28543444382070593 0.06683856769679905
2714 0.03900362337636782 -2.0701934317309867 1.1044415850981992
2681 0.734733048225042 1.3106949451637735 -0.33866239178626906
2717 1.5848570742181558 -0.43091117931290285 -0.941518346697009
2718 0.32098720833103356 -0.6026570187552637 -0.7401895468723135
2720 -1.384018592250626 -0.7796633421473127 -0.9627076336039472
2683 0.16746628853921836 -0.26702824118641005 -0.35315709142228047
2725 -1.9294349392637715 1.4000462979724542 -1.3479847761384818
2728 -1.0022884299088706 0.3700821783109081 0.9886998933384541
2687 -0.7419167283134993 2.133524370843573 0.740563158015943
2691 -1.3415977483120491 0.08851391498717734 0.8818356935138525
2729 2.41930880450495 1.5419162996735996 1.1757863295347906
2732 -1.260777717426156 1.666048551715794 -0.5683026189885546
2726 0.5494202050866117 1.036290574637604 0.3027325533419904
2733 -1.039854063201671 -0.7625818326079945 0.09327798930732167
2695 0.5913287803897544 -0.6313214729390145 2.466923559334336
2737 1.6990935303652697 -0.7175481829260155 -0.09067226430015768
2740 0.4646299203901528 -1.2821218102978738 0.37540280752123156
2699 -1.5265140012644276 -2.1187360193290594 0.7693771431026946
2703 -1.6437188221610657 -0.5901253227191611 -1.0724765087124284
2741 -0.32972822289844417 0.26601552317912125 -0.9628507910122679
2744 0.13852112275677092 -0.21096523458495764 1.402913523993167
2707 1.3622963759278903 -1.6505416192528035 0.5574027076413911
2745 0.43387428629868574 0.46464603634895957 -2.468925773396101
2748 -0.17575024707571393 1.4853977629448114 -0.8000827062227829
2749 0.46874070851913185 0.4896949916427715 0.39562809508650454
2752 0.060184036695630806 0.1284405760861915 -0.3479624410460295
2711 0.004802472573020838 -0.07525062604046764 0.508936050589426
2753 0.5720708016951701 -0.9397443607317331 1.1846324940209847
2756 0.0016854580461065911 0.8464754446637593 -0.7299484738751904
2715 -0.485994772986152 -0.053137941848545464 0.23338341532255846
2721 0.5497015426496289 0.2014616403527312 -0.4966535875166163
2724 -1.288461269657324 -0.4892147853016957 0.5567920569734652
2719 -1.1625302942747495 -0.5744687922298866 0.9806555339038223
2757 -1.5152135041003476 -1.9462017333929964 -1.4266423000056696
2760 0.18493632095012677 -1.589511291704917 0.6641674944239827
2722 -0.6362880476534151 -1.4518843410818705 0.2886124471360424
2723 1.0624220723090592 0.4037182856843658 -1.3086191050823999
2765 -0.14860963157257995 0.9579815314272045 0.5016392272089508
2761 -1.3694807348272882 2.0603937426758643 0.6141388199233678
2727 0.12154041240149831 -0.45265175265359164 -1.3286726235186859
2730 0.5806005690216547 0.20342444333196485 0.7382724450781473
2731 -0.5140960925649483 -0.06932042750190123 1.7202906433801337
2769 0.3574390045193948 -0.12444382105373646 0.15052275033915397
2736 0.022451554312943933 -0.7577551571939708 0.20713285539611617
2734 1.640666697607277 0.43522681308720307 -0.025190116648423015
2773 0.5124900727466261 -0.6557556243116808 0.16142927089154416
2735 -0.8042992930531649 1.6977112072017986 0.17515588223639425
2777 0.34345210929831366 -0.32303401758686107 -1.5308944706880667
2738 0.02133485946739876 -3.3938230345438614 0.38649727897166153
2742 -0.9495038826039244 0.3549784625808175 1.9048057407698364
2739 -0.5851951947801012 0.3648389600334076 -0.8008999805139747
2743 -0.8421672352869813 1.3349168408925978 0.380266510354155
2781 -0.6997197059901239 1.927001591924182 -1.327483126448644
2746 0.6345606849329017 -1.351375192363188 -0.08640060390866645
2747 -0.13931356123529712 -0.6113440879668696 -0.9722964682182671
2785 1.1442220630299622 0.30478866487912076 0.7807408454329079
2789 2.8361375543397735 -0.6221307215967987 0.05547329129398244
2750 -0.6124301606047344 0.6948557111744014 0.03616592662300524
2751 0.4526613879617118 0.019086960121640545 0.08645373343665011
2793 0.06396224705267217 -1.6870429680850507 -0.09486540285326205
2755 -0.7815400023990126 -0.15507681546784008 0.4406759856886334
2754 0.29405822543046456 0.6154381370156418 0.9451374932811767
2758 -1.018271603062078 -0.17680828875659166 0.15259157521631128
2759 0.4231861311635534 1.0725727603670991 1.057035002582905
2797 0.32936845148253024 0.07568470386050534 0.24786056828791184
2405 0.630472022853142 -0.8276718254647163 0.2643797707138235
2768 -0.39134732643173153 0.8491761318457931 -0.4794151353621131
2762 0.28672938712557605 0.07946125420929225 -1.6421809973392538
2763 0.357074156519793 1.1279900263447875 -2.1945109145023474
2767 -1.543654654043795 -1.302743004504232 -0.17431782399463347
2409 0.6657746463661344 0.49628026710940837 -0.6103116076201597
2766 -0.15220374120282712 0.48608105957093417 1.3829863913218419
2770 -1.9759425542263331 -1.210852508018361 1.5896571007868194
2771 0.5735314597106852 0.17290746686905153 0.6761774265267185
2772 -0.06616757007904642 0.03551868738076366 -0.7915805623850214
2417 1.6651331403388638 0.3344668752521738 -1.916099506512216
2413 2.4129949519317107 1.0279959104230891 -1.7389089081320246
2776 0.3355300006683361 -0.8851778588471408 -1.1564735947340998
2780 -0.12368055865578752 -1.2219663376002878 -0.9711375431586573
2774 0.7497056520970775 0.6964771963878289 -0.10019934641417128
2775 0.3586155305225319 0.23873895633872602 0.2142797212021943
2784 -1.0726026090669545 -1.2242620688019872 0.5455073655075947
2778 1.2549458181420452 -2.006353460289178 -0.08788590506582074
2779 -1.2883320427533993 1.19076725883647 -0.18142228460321008
2782 -0.5214227775645333 -0.35758001477535384 -0.6038435500781321
2783 0.14820824203758817 -0.37116954969870786 -0.3909827158640141
2425 0.83959120290096 0.783895398515371 1.2017689046152205
2429 -0.27176584637008117 -1.4276337813832254 -0.026383849265039346
2788 0.37872059060522156 1.0616582246175823 -2.182355158711007
2786 1.929223373592783 -0.4867522345377318 -0.4738191183346611
2787 -0.4661116589962479 0.11213730501223049 0.06839191938336701
2792 1.5108022884515457 -1.6343680751230452 -1.5206917978151968
2790 -0.6232132818689862 -1.7199100651267116 -0.3019083692439946
2791 1.1811187519359767 0.0034737061636695796 -0.056662980748512205
2796 0.43195964956963023 -0.23622003130194305 -0.43135273297552157
2794 -0.4355438734621622 1.5105862770106313 -0.2640485531313
2795 1.631189200950422 -0.9083100457569431 -0.38671037228034033
2401 1.60334130732987 -0.5797801546477305 0.5036936816784418
2764 0.34062492197231403 -1.5647930946379407 -0.34179071944111494
2437 0.038508843617581875 0.4808641525793319 -0.18915186365121417
2798 0.09046718858108596 0.3321024382105402 -0.41484044501916517
2799 -1.6214978190190281 1.1938138449718063 0.13004072801711375
2800 -0.3593734863580735 -2.8055153209416326 0.31873607521505654
2802 -1.309442180204868 0.6371247413993911 -0.19336286550914983
2806 0.992791209313009 1.2702141272754257 0.6388243313149183
2805 0.12869953834887063 0.022724889816455224 -0.2544711770973582
2810 -0.5092164876966938 -0.8145474917218085 0.5171697943273748
2814 -0.3711519214846903 -0.038614193644832075 0.04388847217231301
2820 -0.8187514335436924 0.04184686716483086 -0.28872816583716354
2813 -0.40633941714172883 0.08192170129250889 -0.4004616870513085
2818 0.03263765493230373 -0.44163098708914944 0.3505629862567597
2822 1.1591753332885824 0.6604186331358683 1.503713031422887
2821 0.1784053461296106 0.1390063531601692 1.0131344608901756
2824 2.694205353194916 0.07991873330098656 0.051108694342172856
2826 0.9503493547623384 -2.076976804740275 2.1226039298214383
2825 -1.4118930823294156 1.3722269002994147 1.5729746884905975
2829 -0.9156007070005019 0.022129082701885315 0.5435108142235929
2828 -0.012002194750027999 -2.455642707373101 -0.30610290081226976
2830 -0.3388667676465961 -0.5904663927753573 -1.450122170519896
2836 1.8726523449310963 -2.085461378868119 0.16445019810542966
2833 -0.24877976935021515 -0.8469484105832996 0.313865886348226
2834 0.440434375367033 -0.41895552295764305 -0.28821235395011163
2804 -0.9317235002655853 -1.7149242762356034 0.633426766628601
2838 1.3666159886076354 -2.9420732578068165 0.9280075166935996
2801 -0.13846669965173802 0.90930812620657 0.5583246816918482
2803 -0.4695789681566654 0.5875921903360314 -0.8569888620063727
2845 -0.8357321328630991 1.1889388706676098 0.32293126108943504
2842 0.7546946307339495 -0.1735436865144132 1.239143582676407
2848 -0.37262675788847643 0.7714862164470548 -1.30513548213697
2849 2.430707034633914 -0.5452190412773453 0.07079197238758453
2850 -0.9274029335779355 -0.5106086859144695 -0.47310290873574407
2807 0.1691152433074321 1.4903996575139868 1.0146703291666341
2811 0.26012911263116545 0.6062006150807516 -1.308388745291049
2852 0.45805148365748527 0.8962658989651825 1.6366654457071856
2853 1.4664173984871427 -1.3170903480755727 0.5006182524273852
2857 1.148206122446854 -0.711599077771028 -0.5203778479410265
2815 1.745232194870088 -1.2818282095457916 -0.06219985341292489
2854 1.6899243010618543 -0.019488794522146347 0.8427434122636852
2856 -0.5134834360483215 -0.23430994760160948 -1.4697958493923386
2861 -0.5927899262604858 -1.8773257327373902 -2.2545029048207033
2858 0.40658932778976126 1.4546802055258334 -2.6156086690563516
2862 0.42227957226537266 -0.5879077758793119 -0.5790006810406666
2864 0.659751166649359 -1.037107335281189 2.0673268743607283
2819 -0.2645810279101533 0.5989844193768843 -1.5551055383394905
2865 -1.8318008356471824 -0.8519987389492899 0.6943028569971171
2869 1.712335388658368 1.2189878762443367 1.8619572753356224
2866 -0.43370357622883593 1.9688715120226505 0.1166069162218975
2873 -0.18115730446227576 0.6193037374441088 0.11951482985612732
2870 -0.7994406718229666 1.0649291830334218 -1.4710781427768007
2831 0.5898791844045328 -0.5371013986875185 1.1417018703217001
2876 0.48796588475957137 1.0805434759394827 1.3421432663864834
2835 0.8743377947154946 -1.2699958537997436 0.5408792103019235
2874 -0.8253685918951374 0.9264759083818078 2.205337349602633
2841 0.12019758019579373 -0.6489803521975197 -1.5262762584810412
2877 -0.7889771687363726 0.3288581699056787 1.3441126756386783
2878 0.9389104434542421 -1.3073189562001895 -1.0940457600876954
2885 0.9816994241483585 -0.43035400425762604 -0.926376636711405
2846 0.4401747372704742 -1.712379742096261 -2.063582222406363
2889 -0.46161148041204725 -0.20475341722445398 0.37041975992365617
2851 0.23723467379742952 1.0445559378523261 -0.4987605692387144
2893 0.47290364431029636 0.5480373435534756 -0.3162593487408027
2897 0.7689334351671885 -0.9968136508679454 1.0632769471485657
2901 0.2957696661460274 1.114383465210155 1.0941952778116508
2859 -0.11480483793207218 -0.33127420044065936 1.2864619674141096
2905 -0.08056970548479644 0.010591459588026306 0.30929630296681776
2909 0.9029712646749131 -0.965459055866312 -0.46919636992071057
2867 -0.39908807359988735 -0.2737445379417945 -0.7195575295650318
2912 -0.7859598945838455 0.2671152336889242 -0.5781462407418096
2908 -0.5901090352870689 0.2986030439964923 0.47548811639629607
2913 1.1080841015349658 -0.08201033852244427 2.085116731069798
2871 2.0308656797427935 -0.548467084093495 -0.28825839575189094
2875 -0.7344838969506035 -0.3110456147521045 0.4598031484938291
2881 1.0041389651013137 -1.224460425576479 -0.6227603344584988
2917 -0.12168583077338378 -0.3978904335595225 -1.1616051937967509
2879 -0.060545274386929915 -0.7507540931688386 0.6426424187991565
2882 -0.036002069076932014 0.28351998306356424 -0.5472000396104006
2925 0.3380046492040666 -0.6121140968018864 -0.5907697065902647
2921 0.24879024693318494 -0.18279816084375797 -0.4707927778008541
2883 0.281976152663244 0.7955768785319718 0.08227624335661789
2888 1.9725787091346114 -0.4932419162038248 1.008818201501182
2886 1.3311561868329347 0.39466754236582446 0.07474274641609353
2890 0.5259743535114044 0.476544356263037 -0.1964408638602291
2929 -0.5729821306932341 0.5125589203531625 -0.009925133647239237
2891 -0.481198713986213 0.029369272225340613 -0.3181637234298154
2900 0.4412253288967989 -0.44804756284507197 0.33963052970765145
2894 0.7304793715135119 -0.8830787211581607 0.5515199176509881
2937 2.095294611574073 0.5691385952850779 -0.6959309239862579
2933 1.4343381854815693 0.21461827904100853 -0.33338549294978215
2898 0.2905523825713563 0.5330370321413405 0.6398435537794995
2902 0.14379793468457608 1.713131189831686 -1.51222039804148
2941 1.058307388454609 -1.2575867731182524 -0.9297225223036922
2899 0.1164472778982177 0.5558242762843124 1.1851527989106716
2903 -1.2749965780358934 -0.9394636498270003 0.6493093296709098
2906 1.7073815597102608 -0.19488601059519817 -3.462022174223855
2945 0.4204539751071938 0.24014408700735418 0.7440188508279374
2949 -0.12504007419589394 0.9192769766240425 -0.8377657081532119
2910 -0.22538621438740467 0.25424186792902825 0.42999499638902144
2953 0.9867057332512705 -1.100992718571171 0.5208883186629867
2915 -0.3991693502670447 -0.3617475109787035 0.4954260652800709
2916 1.4033865710323727 0.542497483557219 -0.8856920773473144
2911 -0.09288507712792038 -0.5704235545680538 -0.8337001990126521
2914 0.2628462313501243 0.9487528889564657 0.2029425737051255
2918 0.6970075007529735 -0.5872611253741875 -0.16233306791347302
2957 -0.22009510272143323 0.7228070742754814 -0.719285951448441
2919 -0.6891421524445265 -1.6019679744012483 -0.37500468389401165
2884 0.06121351881734864 0.6541121384108836 1.039084539043603
2922 -1.0039234774245716 0.5353322751467826 -0.6447608377920614
2926 -0.6650565036926521 0.9956093573964883 -0.012607344498512526
2930 0.47920971206837937 0.29864721648993636 -1.6326112901245373
2931 -0.27945699649502814 -0.4582867412337397 2.71922052548952
2934 0.8012126145807897 -0.20693412715505768 0.8641080042252622
2940 0.7279832190914872 1.059818000688034 -0.8982115497057254
2935 1.9204916761242004 -0.21157246659796525 -1.2490695377767547
2938 -1.4886794778529546 1.7522092438977854 0.7935974199205529
2942 -0.3656797484202128 1.1339560592190254 0.22931985188016435
2939 1.3595364058914399 -0.21309037707580475 1.9727176515684257
2946 1.5620530469490241 -0.6120770663232882 -1.133211106716824
2952 -1.2467010516420958 0.1770862834956011 -0.4906667673858272
2947 -1.0009444833703198 0.8399275484054388 -0.4898673513895836
2950 0.5162359666020755 -0.5481234171045384 1.0565291986427823
2954 0.3483843913337114 0.2608951664316938 -1.0471229720614084
2956 1.6104315677800767 0.26641382250572704 -0.7437159931731793
2951 -1.5943004677217474 0.037105406141188235 -1.7010891842468714
2958 -1.3212913165195745 -1.4720136410550313 -0.5905423737093926
2960 0.09913003553949051 1.1975785785854536 -0.8619330940723997
2962 0.04440424702350533 1.4971569794348203 -1.3684846462292604
2965 0.1734814123229248 -0.5070689811235938 0.7774896339111791
2966 1.8569897687329033 0.30768386728680064 0.5254291041759996
2969 0.9932342657248038 -0.9535338574758508 0.4213820116349438
2970 -0.32339288236622143 -0.6137059112051846 1.7822118784240548
2973 1.267857289436209 -0.215375716055185 0.10930584968666152
2974 -1.504040010994822 -0.29095612036422436 -1.488947337888942
2977 0.9998863216307378 0.34227087536500744 0.4164622699703468
2980 1.31055134805921 -0.14476494567008655 -2.4196765230653416
2978 -0.9340587027275197 1.0186484734081274 -1.152463937849289
2981 -0.2087853080499247 1.337853183993635 1.3188577826342271
2982 -0.15644846839526091 -1.3445991164414164 0.3125588480416891
2985 0.44324140175197535 -0.9215960876240924 0.1326684665351007
2986 1.1916432912004598 -0.8852470251813227 -0.3034120102636301
2989 0.2673828026088385 1.5008517825060765 0.7002121399389766
2988 -0.7220311701975989 1.2910681616780415 -0.7861920238218687
2990 -1.3262677916406818 -2.54573407394907 1.401787151531604
2993 1.2653712486599096 0.1491982553660545 -0.8270318572509523
2994 1.2933295142613388 -0.9713362216156297 -1.6094654799428079
2961 -2.1119875890488555 -0.8762273187255002 -1.1146413888976556
2997 -0.11448417977679012 0.28863884516289307 1.4095377742095956
2998 1.392764086556115 -0.1484244765098282 0.010785333929146306
3005 -2.4914629534943846 0.41671840526308207 -0.9389581787416212
3001 0.1298719182235768 -0.08584757015038216 -1.6013403105080821
3009 1.4086937652383968 0.8989318893500863 0.2831876138597793
3016 -0.0002676870988597128 1.1678855644382784 1.3453056214268941
2971 -0.2238258086507771 -0.11339279619224059 -0.4134861278698315
3012 -1.7043649685576086 0.33020205132319436 -1.7804925866414467
3013 0.14975754810944328 0.23165621016665738 -0.4522927583951561
3017 2.5126095671565416 -0.1435101377083768 0.11069288705377264
3021 0.2626722947114198 0.545888681352862 -0.11549219631141923
3024 0.33759369928646177 0.6368817873747721 1.4393426966479312
2979 -0.24410941005300787 -0.22961717597938283 -0.7959255223712445
3025 0.9183888625725376 -0.2848908339044066 0.46509314807139374
3029 -1.3482960812912492 0.788526309988496 -0.15578429595198418
3028 0.10124780582363004 -0.4111796947642911 -0.8101097405007572
3033 0.4265113068934075 0.7470493565572576 -0.2639398920242211
2991 2.161912221682795 -1.2426385603862136 -1.976938783981329
3036 0.9581150434243932 0.11801091817584101 -0.30093506870516257
3037 0.04724547535544544 -0.610300555258441 -0.478999384074187
3040 -0.5199844807882956 -0.10078976481322338 0.3140385961728263
3002 -1.5731338891674274 0.14513947799770072 -0.8729868995640186
3045 1.0541324028245438 -0.3777439861275273 -1.1715074790111764
3041 0.611281183104004 0.3948209269491552 2.1658334865154343
3006 -0.9294989545656334 0.32599064683888407 1.4122649590172323
3010 0.2985172607174956 0.32689063090747816 -0.26308569898248807
3049 1.1968619662640352 2.411940567945714 -0.6458249171048052
3053 0.658504398186034 0.4044728714442564 -1.7668515928896626
3014 1.8473614101161264 0.2607694918768726 0.20063376389218923
3057 -0.1537691569775059 -1.008001255542453 1.6066992801800544
3015 -0.6251288005628058 1.2502775736708391 0.16030605283826288
3020 0.10777769464260045 -2.429787305703018 1.2644160808901796
3018 1.6497628903090027 -0.49835383879682676 1.2041868427083096
3022 0.43258745539188326 0.8075825734510573 -0.4487815977793149
3061 1.865449708934202 1.7293987725307498 -0.8145130265990214
3019 -0.679934327791759 -0.9000274649926282 -0.0008845928974508106
3026 0.971789504758183 -1.1942698324193164 -1.1595440703388653
3065 -0.19745457560882365 0.7844641852781199 -1.4835684265901319
3069 1.1412501992962012 -0.004419555003870928 -2.3097692824403158
3027 -0.5803216135353381 1.850504640971176 1.2612030324654828
3030 -1.565039838431708 0.3636976960867712 -0.581695827137437
3073 0.053043329406451574 -0.5587547868168633 -2.1590855362552697
3034 0.03369650328397912 0.29610834813518905 -0.15986717549556687
3031 -0.6458230821318369 -0.31756980816152247 -1.862310168941528
3035 -0.24820108814479597 0.9360852295471861 -0.15604278754814765
3038 -2.5803690864013378 -0.8706274691459656 -0.9781569713895663
3077 -1.5211561968594476 0.8624623924297647 -1.2214363895351894
3042 -0.7233728474516121 0.3603442092544959 -1.5067732272885137
3046 0.21330004396607224 -1.8727764704365886 -1.4550286554845984
3050 0.5981411645942585 1.904242295057896 0.22867033981184404
3047 -1.2511343444668919 -0.49081107644433125 1.4779389863762482
3051 0.2783685526874874 0.8382932412022769 0.47954935024689443
3054 -0.6824065680433229 -0.08917231219285209 0.7732684959259865
3060 -0.8556519153675611 -0.6300950157771698 -0.4890781659585901
3058 0.8987012812779321 -0.6267639365369768 0.37418660746125537
3062 -0.6655902645049616 -0.40746379553028805 1.4398814903783606
3064 -1.5648521571199905 -1.2189793223019352 -1.4145446796486667
3066 0.28638936699560325 0.2673477334027144 0.4887612354181114
3067 -0.07433975845275285 -0.11379034003158908 1.256406503445942
3070 0.03340414289293304 -0.8753749930761678 -0.8542619845972853
3075 -0.006838203627242623 -0.34461385666540434 0.8507293498962647
3074 1.7373661597906105 0.41231791710889426 -0.6477322332735399
3078 0.42380959449839456 0.13721090443684505 0.5716086820741806
3080 0.3627068570281003 2.2567586213894475 0.3789084353678755
3085 -0.840679404174648 1.7963019045512048 -1.0136434324170935
3082 0.6866144239061078 1.6428532280478363 -1.0470480458580111
3081 -0.4251899074856781 1.8363405555552148 -2.047361160211605
3089 -0.6978668363486714 -0.8278898719378431 0.7251904613896477
3086 1.213165625725261 0.30712847854328434 1.1570526722350514
3090 -0.18025057761118732 -0.6785070174074906 -0.12230893653068196
3092 -0.19841759022221594 1.3219857515191638 0.8682349455331697
3093 1.8788977014556159 2.162301967206827 2.027260390054689
3097 0.1865313275324962 0.18212089375921148 1.1917764351360072
3094 -0.950476800773827 -0.05622231121869464 -1.040391007978087
3100 -0.3100339171470526 0.9327310368123841 -1.593386581704527
3101 -1.9555477529609928 0.9052002600720311 -1.1234814768084278
3098 0.3045564392448992 -0.9396972367126933 -1.1115731592711486
3102 0.5657001928643903 2.175460507393178 -1.0955770118701387
3109 0.9685681899314809 1.9813409722373712 0.0045833526710565824
3105 -0.61294829202714 -0.7252702952792878 -0.9932840117011295
3106 1.836135970386576 1.0276523315369936 -1.5263400342629931
3108 0.11777810051451744 -0.3798330323344526 -0.3945059936610639
3113 -0.5469169700037222 -0.34091674099969177 -1.212434882169185
3110 0.9970968414325856 -0.3062067926991054 0.18440942347188488
3114 1.9625516224495796 -0.2621366936950533 -1.626132340896751
3117 -0.003092457056381603 0.18949901561812607 0.4562290572976894
3118 -0.4153140672594585 1.2253791534989737 -0.09172089801118222
3084 -0.699642275506842 0.21838043319891776 -0.7381862316151401
3120 -0.38961896909823424 1.5007829179476222 1.3591842782726662
3125 1.4914358733669824 -0.4465209647522553 -0.11953937077743833
3083 -1.8195105505153777 0.7608687664464767 -0.6984500043742687
3126 -1.2310363027812923 0.4174539714884217 -0.09635258950718278
3128 -0.22735497749917272 0.01992054208245484 1.7156230872173095
3129 0.8513322427042616 -0.1619975354473366 -0.49426723474457496
3132 1.2753773927300713 -0.23266989865509882 2.213362315786052
3133 -0.4370835594695874 0.41083229298285695 0.2701863234772092
3137 -0.5446438078797143 -0.6531448182986106 0.16345814235580916
3141 1.0317418573908774 1.154204287415863 -0.38866608046768214
3103 -0.19238086841511237 0.6014651204812297 -0.5177238505763164
3144 -2.074300718945273 -0.08023085090207638 -0.7416514767235155
3145 -1.5758325751383535 -1.0883882852932782 0.8239897062606304
3149 0.7939172601636086 0.4556811796062044 -0.2298394867753173
3152 -0.07272039029411866 0.2953458984164598 -1.2401860833444724
3153 0.3822012395033215 0.7330545280805246 -0.5315816073601708
3111 -0.5701263673215226 -0.5324183689902086 -0.7640264078219704
3156 1.2249564803269357 1.2022045485212443 -1.9941850776767107
3121 0.24255443186964465 0.9869155883760177 -1.1438095405268536
3157 1.174706839188267 0.08281208586813069 0.43552787678372995
3160 0.38399739296834934 0.8116949190431719 -0.2270062954341599
3119 -0.09617150537896957 0.9242430262767597 0.1699364244650812
3122 -0.27592646889419525 -0.7721091703163744 -0.9463996242301382
3165 -1.4857939342524389 -2.245655018772966 2.076767341539265
3130 -0.9583973324714385 0.8725262438503278 -1.0245478188669401
3169 -0.7657498649977865 -2.0081188546487327 -0.9549329224075762
3131 0.8135949022517692 0.7954769556683413 -2.396644165827245
3134 0.6952480329056273 0.9666807155456846 -1.547682081000665
3173 1.0088019844669136 2.546314447179956 0.4441773729957384
3177 -0.03892063903774588 -2.8308817502787167 -0.3810683498205862
3142 -3.5904632888627974 0.9196175348325157 0.14354313721412593
3138 -0.36747876854725736 0.012742566556508843 0.3875412942084673
3181 -0.5075619463152116 -0.5786734818135643 -0.5012081331724731
3143 1.3770761521055428 1.1774578868666468 -0.04146928159963068
3146 0.31651228782040536 1.1467780529392049 -0.03705546950664887
3185 -0.04794120486442383 0.028981157322425656 -1.4448903428286168
3189 -1.0577864921338098 -1.065437782606795 -0.2849067019691166
3150 -1.356045849307936 -0.6558131620026282 0.4620105620637547
3154 -0.4833708391830269 -0.6477725615961522 -1.2556376345741822
3193 -0.19237910892241408 -0.13985980337426987 -1.1587392465118282
3155 0.233865658680572 0.43918957653454227 0.17824339220099208
3161 -0.6021395794917566 0.5448465153493692 -0.48945792569140933
3158 -1.3116337661014006 0.5360047487896755 -1.6341579896918008
3197 -2.0282600991203394 1.2135153604558293 -0.3020609401383046
3159 -0.908491781167311 -0.6206995060715017 1.4295245627928763
3162 -1.5545602297008387 -0.3556493791567323 -1.2244555009437794
2809 0.30850380537757793 -0.27355576819052213 -0.43480054259203826
3166 1.2579631403100675 -0.7506087463619572 -0.4993311649413003
3170 0.3973524930676123 0.16492431651684322 0.23027157347199081
2817 0.581234531159702 1.5708122698238307 0.14743097803218427
3174 1.431901885460104 0.029597967696678402 -0.02505922509621967
3178 0.6501195361471618 1.3278773679044713 -0.23745160098410448
3182 -1.0673966672429658 0.8272990436995649 -1.048969132040144
3183 -1.074455635143576 0.015732651019620663 0.6054263418501374
3186 -2.4974936694712646 0.04302547749835562 -0.8157745979431401
3188 -0.4291766550050426 -0.35266204469294143 0.34859294150837034
3192 -1.535778170814128 0.6446778321117043 -0.14251221189547741
3190 -0.030959374046145956 -1.196046404899954 -0.0923029692954125
3194 1.4256191043798938 -0.08077319009884558 -0.7532533227082813
3191 1.0225191917555208 0.5610489760164604 -0.58400430147129
2837 -1.2557946578694668 1.9813915986927155 0.00473181524277444
3198 -1.4462292776763934 0.6195723856818718 -0.7155520599493628
2808 -1.2005473198884848 -2.2213099999072026 -0.07007745161875284
3202 1.1808928732465909 -0.3393764958790088 0.37588942249728124
3205 0.16350587338964095 -0.9392022224683896 1.8158975393209238
3201 0.2860741103446282 1.4883518281462662 -2.068177679048645
3206 -0.6403045943820004 -1.1665983458137734 0.2220576298985396
2812 -0.2363269494252861 -0.20621672212488903 0.3927018788176578
3210 -0.8579186830552947 -1.2827212385166917 -0.09480882104483172
2816 0.15644971226672544 -0.44391344534505706 0.4586456222364258
3214 0.1929599466770101 -0.36887827828316927 -1.7064269632791873
3213 -0.06790984688470605 -0.6092099637580386 0.6328788913778115
3217 0.8056239492110994 -1.409509417808418 -1.7592184060969616
3218 1.9445068092901503 -0.7497130023999647 1.1942832232877896
3222 0.8468752881836771 -0.2363196787266616 0.03594052177983479
2832 -0.8348630330023739 -0.24793840820009358 0.8401534475675946
3226 -0.47778065171787104 0.4786462526769004 -0.705276124431572
3225 1.5846605717174433 -1.548730883495889 0.36832322870785494
3230 0.4283860599059952 -0.23789292387004368 -2.5763213567048533
3233 0.1815978681729657 -0.03996565827089659 1.9979645445199967
3234 1.1230981729095073 0.15635646221839228 2.078354732611211
2840 0.7034622639720405 -0.8359528181634314 0.52294607737872
3238 0.13005801536645378 0.11680642300862726 0.940673662138265
3237 0.04099509462296941 1.3588918042540363 -0.2255402698403993
2844 0.6735761843329879 0.7032278063043423 -1.8578828361405832
3245 0.6564432716799891 1.4461929273036227 0.4163959934963962
3242 -0.7469333255029514 -0.36951433079231644 0.38331428847042964
3241 2.704834842193363 -2.1928844236321354 0.9613243585668856
3249 0.40860752359714186 -0.719906268270455 -0.20373387520887712
3250 -0.6065134898806399 2.76099715384623 -0.09185664017837732
3246 0.4538387002170511 1.5770781623453034 -0.7177243695742062
2860 0.42753599834664735 -1.4930831657787769 -0.6594287996229248
3253 0.3074803824393964 1.444679712386372 0.6913662696455607
3257 0.012392391708908518 -0.6260382306239413 -1.0665748234760106
3254 1.1373571518324417 -0.02317144606039539 0.8248169622206684
2823 -0.24579353819189176 0.977728669054132 0.41062010505365587
3261 -0.7485817489434486 1.4202693271652085 -1.3325873304034686
3262 0.17267978377992832 0.9727861466863081 1.7862845690492284
3258 0.301449885206451 0.0022643746742222726 0.12443877755776349
2827 -1.145158714946678 -1.9931729912739042 -1.4779153979955497
2868 1.0433840393947493 0.12178441522966922 -0.5874589194318075
2872 0.9407837570185285 -0.16027780819548462 0.9766160928549077
3265 -0.18921690667796298 2.118619362014918 -0.33303735924909655
3269 -0.31386121919156407 -2.3685124281201855 -1.0523730873079182
3266 -0.6156733760986556 0.5484609900624092 -0.6790025812109192
3273 -0.29453052120300005 -0.6277401902566652 -1.8840276681724724
3270 -0.4764808328848623 0.6238173824401877 -0.2018078131465115
3274 -0.9815610678047901 -2.523260316156951 -0.24043275220052124
2839 0.43672182333477877 -1.2701725542875753 -0.0899173785262635
2880 0.07458517326746404 -0.8445779882840267 0.21489320697898642
3277 1.6535387417842586 0.33289548794784124 0.19756090992000055
3278 -1.6668084366860976 -0.9721208815120499 0.6344939262413833
2843 0.7698384688999064 0.259554795420732 0.8512074362238174
3285 -0.4593458736994744 0.9091950801280501 -0.8159604305065868
2847 0.771610196331799 -1.1770280864768852 0.933958960696983
3289 -0.017237969838157025 -0.10962192926722428 0.9820494256808833
2892 -2.38587599706206 -0.8658095707918414 0.4410584451814806
2855 0.9235379536351621 -0.5812103636991813 0.15277260382010058
3293 -0.3123223651557608 0.5277812669558467 -0.6486139256376013
3297 -0.8079694419842238 -3.203290535649584 -1.418870765806579
2896 -1.9315548962698545 -1.8127277149760976 -1.0870481272493753
2863 -0.29947641421286636 0.39854936278089803 0.927903909599832
3301 -0.6022985100713085 -0.47500090180555876 0.1237270119874194
3305 0.30866686900405127 -0.6401793325206878 -0.846928846730898
3309 -1.6127215460208775 -0.8020110106260082 0.22845315471860958
3313 -1.8153855936133452 -1.2734597791630082 -1.2580094884536184
3281 -0.15482004332570853 -0.6979857700382305 2.031577761952369
3317 1.129919008098825 0.49219917128379537 -0.2469234168006524
3282 -0.48856860494899906 -1.6017713230397712 1.3909924089370305
3325 0.405071140952252 -0.8751374215125411 1.525153239945713
2887 -0.44602227296074526 0.0910962428297891 -0.8078318012242479
3286 -1.374566954047258 0.34281428368470435 -0.1069827513477089
3290 -1.0725339375711094 -0.1532157571120983 0.4121827212348274
3329 -0.5781692280972345 -0.1042845128587212 -0.08251598087664924
2895 1.5009781222206338 0.16933069818738922 0.3158021939421763
3294 -1.8304148438461345 1.032321179746637 -0.6467420908434334
3337 1.1491017779331645 -0.48290350088376355 -0.32952602653235913
3333 -2.149316678202681 1.1230989287917736 0.43805560638225266
2904 -2.6780634835338497 1.316916174311403 0.024669246405365327
3298 -0.9877821204729238 -1.7069922636849613 -0.22745211118220937
3302 0.4375262184695959 -0.5853226646621441 1.8323205652860224
3341 -1.044770826537768 1.663273710336277 0.31822196656116836
2907 0.9334565713495412 -2.249353045055 -0.7678692449217513
3306 0.9056303240602785 0.6482054455932111 -1.6770442158036607
3349 -0.13497703722028104 -1.103073299451531 -0.5140436047943957
3345 0.7380609730498442 -0.10626594868780238 2.3069017220730386
3310 -1.5140424518986069 -0.6619988261274218 1.5308162903511975
3353 -0.05694910130052395 -0.12299472094787633 -0.6312260484051704
3314 -0.9975254414726614 -0.20508469712186692 0.5313992607297314
2920 0.3733763446687989 -1.106120433372322 -0.2948572699692933
3321 -0.5456557861940524 1.842866270507895 1.6289359677219122
3318 -0.8461580676230501 1.9698138866950743 0.5427655777768344
3357 -0.4435291853936188 -0.4811882709640273 1.4381950956346825
2928 2.1054878033119993 -0.183120499398803 0.32460488766891393
3322 -1.4149545420880545 0.9752035112083248 0.9226502404858343
2923 2.036140993109868 -0.6897725256408085 -0.22257144138866505
2932 -1.6718627969447801 0.03562642102224993 1.0204456965917705
2927 0.6803283155529801 2.5659463895335666 -1.1527283090194391
3326 2.36024213954495 -0.1703693780403838 1.1079829255761842
3330 -1.6143449088507196 0.24752849998496101 -0.65302440950124
2936 -0.35397790257441053 1.9881716008739878 0.552310229415271
3334 2.6558727122126298 0.1716897589870156 0.8181983306783598
2944 -1.0102340777398306 -0.4931997795802178 1.251333169711568
2943 1.615672831658683 -0.47782731321496036 -0.2950598277150415
3338 -0.5944482489665961 0.3705110444305287 0.6270250588461235
3342 0.5169552934009263 0.08746124983084436 0.15258490384022605
2948 1.7380085429314094 0.44187686959320355 -0.30672379724541793
3346 2.455383066246868 -0.12090291788687259 0.029205459462484068
3350 1.3084523034801347 -0.08626826403186307 -0.7072231581173776
2959 0.4644764899520076 -0.7294584623500968 2.8309325370350993
2924 -0.7277018188527876 0.43466336206991585 0.2965907668222566
3354 0.7521977290256721 0.13377778812845548 0.9560017886931591
3358 -0.11407017183555151 -1.4900643311123587 0.2439206224662123
2968 0.2758018171124123 -1.245722316904131 0.8579983895129645
3362 1.2285747029384981 1.0749816201738849 -0.640278397261529
3365 -0.18186148332372154 -2.889922032411327 -0.2973001383311993
2972 0.875134248935142 -0.6030204575067857 1.2113143700003413
3366 -0.9294924764801626 -0.36031639507162244 -0.6507212623161406
3369 -0.6120514851422415 1.111540894115214 -1.0809947905674324
3370 1.1097142959154107 -0.20177737525927258 -0.14745390740057487
2976 0.655261105904747 -0.5591386314311958 -1.0563564667825438
3373 -1.4462321751049387 0.622714020247945 1.8044643147067512
3374 -0.20777280462856895 -0.8540853540358336 -0.2741627704845695
3377 -2.5940941279271685 -0.5879810860818863 0.6904885488159779
2984 -1.1757783271371431 0.98135413487858 -1.9624309440358252
3378 -0.6023182948611862 0.8094900123889794 -0.8196883074769551
3381 -0.7335783365807305 0.2514512017657432 0.1052406260642838
3382 0.3189700707972238 -0.9331146509225694 -1.3026734927096209
3385 0.4231319739658138 -0.3231254975566933 0.035763309170504035
3386 0.8782892429834762 -0.41786580058913625 2.4991669371670966
3389 0.8920050175884842 -0.9910750072533391 -0.619494163585946
2992 0.22732104472121123 -0.5683910592110254 2.5586442469393114
2955 -0.0858406661421597 0.28223883367522845 -0.946029208696005
2996 0.47907664585479076 0.13711814782334808 -0.5403525534992523
3390 -0.16660820608463991 0.0765766687346502 0.6138205107742435
3393 -0.26569395381953176 -0.7655915283431016 -0.5226684335846957
3394 -0.116940699405135 2.5285383353411186 -0.6072867079317023
2964 -0.8466587491410021 -0.18703782175962325 1.2228186120266238
3000 0.6218131707592224 -0.5749006055741787 -0.9420121070863816
3361 1.6434631396001655 0.692648938689836 0.1290970479356515
3397 0.529674912151916 0.010958887162655603 0.40759411310769683
3398 -3.0326980994265016 0.8528098959686983 -0.14357043127113592
3008 1.8125364104849477 0.6926102916040702 1.3294623913698542
2963 1.1613206168416486 1.1473501868126033 0.4409215016210077
3405 -0.79833885214508 -0.5272676669861456 0.4958399471817345
2967 0.5542946225337139 0.3207492896043916 0.3281190548209117
3409 -0.548899648774237 -0.20308801009240895 -0.692378335266699
2975 -0.3028354591837397 0.9437127153827272 -0.3472920410531713
3413 -0.9891938679854816 -0.2873805651857299 -1.2774466831731786
3417 -0.031338207146184675 -1.4989745189250645 -0.18424466653831525
2983 0.8153419625251624 1.368391186101416 -1.2423949867572615
3421 1.672998652093979 -0.38668254884506825 -0.45649866424227026
2987 1.7946231120016092 -0.2225843372171685 0.09371059842578267
3032 -0.2717665412699238 -0.09608563576817895 -1.2923336943813908
3425 1.3874313621777268 0.4896202465530574 -0.041655793186716694
3429 -0.08893064770675074 -1.8886739099961776 -0.12816878732613846
3433 -0.7435390415856463 -0.11013189406281118 0.4625252847743462
2995 1.747941319566387 1.9163905525258003 -0.47841739493036844
3004 -0.12344380704842857 -0.13475403022131882 1.828931338326909
2999 1.5587353083384863 -1.434456006662612 -0.01025743484412742
3401 2.2539463909894573 1.2534561985514443 1.2994948673464983
3437 0.09972058281393976 -1.102516620655018 -0.9445163105122387
3003 -0.5428958202595348 -0.8894219706404763 0.5301375049383261
3402 -0.16365736223321664 -0.667048808873217 -0.05114184057387204
3445 -1.151221545128166 -1.5053999798585194 -0.18434138845443673
3441 0.06619965268880908 -0.41751519420043054 -0.2508920486667469
3406 1.3481293684524875 0.2510021310289126 -0.5885660291016803
3007 0.24560188963570243 -0.25770612958176614 1.7255874683632086
3011 -0.7753069046561907 1.952283908522192 1.7250823519034968
3410 -1.2452851778863077 -0.03082530998273249 0.9757625900157705
3449 -0.8391631936816806 0.34084015326224126 0.46454040252332773
3453 1.503863190100101 1.4810399857552463 -0.09882035889070181
3414 1.0153490557274811 0.3808507946528682 -0.03701889362427016
3457 -1.6617237389022073 -1.2433130147596303 -0.24532163847576996
3023 0.17216166038254982 -1.7138998496054711 0.5466680976351974
3422 -0.05258255710701676 1.0272071978980217 0.7628116539539371
3418 1.9829187600884302 0.4354568386229976 -0.9809906312924572
3461 1.2520813253836602 0.6683490648279397 1.6715478029163053
3426 1.2847260633809534 0.8335726797667311 -0.9042901312729613
3465 0.8633168824014678 -0.8774579668262804 -0.09552293756756551
3469 -0.23712528848298842 0.16977390439817464 0.3823614110925312
3430 -0.8657930077344418 -2.184638023296643 -0.33968545031018915
3473 -0.2599391787547416 -0.9616168570977878 -1.6661356953987432
3434 -0.22286471708453062 -0.6373240722208974 2.824845542102282
3039 -0.36338968650019915 -0.10658625549146448 -0.5395825439817604
3438 0.8239979510770818 -0.00458871139703545 -0.7606788436052749
3477 1.0978576257491321 0.4728612860620851 -0.12354896897926805
3048 -0.27212502723162996 -0.49100780318812354 0.6571497155526741
3043 -0.06042097511386723 -0.858408313662577 0.7427980620681783
3442 -0.5290423856208636 -0.9161562847538277 -0.6799013262808341
3044 1.9075412326578822 0.9264519717650419 -1.8409918444313138
3052 -0.2785060380079313 -0.07071671593269459 -1.4285346289247558
3446 -0.9702640862581599 0.7135974926667811 0.8696209021677828
3450 0.9347825167397958 1.5492483691304981 -0.5642183462420923
3056 0.10582524056444532 0.14355198638933772 -0.7777873932639742
3055 0.2986181103614531 -0.5696633297976419 -0.9743877953634634
3454 0.42880042592569956 0.8060481955961448 1.2804352282457698
3059 0.32970543391454155 1.5637148356206965 -0.3856019577496718
3063 -0.1061092485358183 -1.0646323229039187 0.9644190804075895
3458 -0.6004374624824492 -1.2310702953020038 -0.9634349937651526
3462 0.1688561432654327 0.42417978644531085 0.882491114441309
3068 0.9643501427426391 0.08385431206877983 0.4175642899260228
3072 -0.5225238867260664 0.36566958097036195 0.44192317088522465
3466 -0.401504811888856 0.04125694516583234 -0.277790406157431
3071 0.7363826019471479 -0.18642214896476947 1.8418737474215516
3076 0.48657989174359095 -1.8417581850575895 1.1944272690384083
3470 -0.9813127727378071 0.18124397263000477 -2.4837670279984048
3474 0.16907505632130956 0.4361748211549769 0.06495422430147384
3079 -0.27729836419686704 -0.20842790291033017 -1.4951471375288188
3478 2.3279799658088134 1.8059076722235672 -0.1269695209646064
3088 -0.14139174444648184 2.1139964316581397 0.4559364150439103
3485 2.5566198540511618 -1.4448526300539852 -1.1047423511937846
3482 0.1833154602572389 -0.1821659169448684 0.8887815401351068
3481 -0.9796857145912035 1.5726635244348535 -0.8542704428423655
3486 -0.472467837717994 -0.23007893033425456 0.6578585509212893
3489 -0.7334774655662735 -0.3144168896008916 -0.8386636943664343
3490 0.5610315824496285 -0.21816657914499268 1.5071791825203005
3096 0.876837962123623 -0.41459919618559127 0.8517233748750241
3493 -1.6637338152391494 0.18642467393987852 -1.4518805527385792
3497 1.7720098098590342 0.33902443825924794 0.10379142051726718
3494 0.040291558688999245 0.886864906475857 -0.07685515159446386
3104 2.4755955077502194 0.19413242334103215 0.46567327685212917
3501 0.42905735401951894 0.8648411020084733 0.11874283559410641
3498 -0.19184767978460152 -1.1139305295301247 0.15766955862308765
3502 1.107378332366222 -0.42070598685856964 -0.6184093557461215
3112 -0.06508740905205282 1.4177666496109578 0.8434779922035222
3505 0.8075350581930301 0.7004060759491572 -0.21455795769039285
3506 -1.1475378208493179 0.7199524888922401 -0.5568834008182533
3509 0.48334553626477406 1.0810693205389856 -0.16053174327491906
3116 -1.4871520038487114 0.4312569862375334 -0.6300197819082173
3513 0.17159552953087948 -1.369839755472251 -0.7808599650125481
3510 -1.2586851467027453 0.9353493591484218 -0.2538232851179069
3514 -0.907283445956638 -0.6458901630778063 0.030573284013573374
3517 -1.6308885973038558 1.6762736727342293 -0.5541363598988036
3518 -0.9531492730209485 0.541819692723736 -0.7399954675023632
3525 -0.22257298562232855 -1.3862967504327852 0.3499106771277481
3087 1.255699935355525 0.8015041869206437 0.5309757997105365
3091 -0.4622678838173394 -0.8618381241533485 -0.8230131620057921
3529 -0.872118243811531 0.07614705613191343 -0.5556127647309176
3136 1.5051241972593716 0.6244422222407443 -0.7416978310555026
3140 -0.5731917223996689 1.6254027337976007 1.1958595771639429
3095 0.28624430645934196 0.37208467089958913 0.4362762757537347
3533 0.03197300601004939 -2.1858790161287356 -0.5639043206837119
3537 0.04362269173615238 0.846454525870727 0.9438199794176617
3099 -1.2444567706486087 -1.0092593703332222 0.7720552414922568
3541 0.4822648009486047 0.36901721215018124 0.17964099598736075
3542 0.8826566298546629 1.391883096946931 1.4403070894143721
3107 -2.223556157473099 1.1410661271775437 1.5037970272050647
3148 1.702222895026223 0.6237338142205906 0.44829775890437934
3545 -0.5827246779448992 0.7489586187684759 0.30080275413590546
3549 -0.6901033379685061 1.9208597693459344 0.2779382678593601
3115 -0.5910996403288992 1.7575134751747483 -0.5357734292055389
3553 -0.4801032169232858 -0.1071150465952784 -1.2650116181203255
3554 0.30915100774763976 0.4652046281677428 -0.5304863330031611
3124 -0.32734757948693466 -0.7537288899815394 -0.7263377806030799
3521 0.5204812625213877 -0.5932604497530128 -2.145387439941596
3557 1.1708440594334064 -0.4727921625308472 -0.5888286794930336
3127 -0.034217582540724475 -0.8579122200798032 -1.1703247511503538
3123 -1.0593710404966128 -1.3630225162079566 -0.29672584067433616
3522 1.7502000075968638 1.8602807625243565 -0.08070560610760079
3565 -0.5615867905367812 0.45203498482720067 0.40860199765820826
3526 -1.1445716525392913 0.9466582041408074 -0.7471206744496308
3530 0.8483622183292912 0.6994093248784009 -0.1809614855455505
3569 -0.45894015888562223 -2.1395738958145762 1.0897768298609274
3135 0.35134337184576747 -1.3365853919448252 -0.10477708472779673
3534 1.725909581321142 0.5508245141407716 -0.9449473328671877
3573 1.1301892153505053 -0.8677173485664805 -0.5446252293686281
3577 1.2567154722971012 0.8890371591899914 0.3958228386484574
3139 1.303834175904076 -0.8983677816760401 -0.3372106522736313
3538 0.5161802180875393 2.5182353974195064 -0.12258942733806714
3581 0.7296575872028233 1.4975048218667364 -0.1875911311799512
3147 0.6279291432458797 0.8478941211261963 -0.06445799092455344
3546 -0.5352158784320524 -1.1080011085784458 -0.14212690353030855
3585 0.4096565469521759 1.527823812396815 -0.10919991097976069
3589 0.1276946146668729 -0.5326744004969578 0.28870185940927795
3151 1.8262916269858016 -1.870692046529642 0.6647303059177618
3550 -0.415668827702823 1.041028475204934 -1.0535658444887475
3593 0.3826962276869912 -2.0519082130399573 0.6317048310321086
3558 1.1943291265250553 -0.07422726956696477 -0.4003179486956063
3561 -0.13003227644970736 -1.8836512905648437 0.31308927661131997
3597 -1.2554503998744408 -0.8512068319921738 -0.9733171978825337
3168 0.1370614069188679 0.09745660031410668 0.885687709413062
3163 -1.6749853829764907 1.4831723562534453 -1.4560673188547708
3562 0.03570623411273277 0.6702666213760589 0.3381728732956628
3566 -1.2755864976463376 0.38442880217567194 -0.7296988641408874
3171 -0.42403453100787974 -0.07595486096361573 0.4921795734504238
3209 0.7742386366571978 -0.8240626211790009 -0.7808724093664396
3167 1.7774551746205691 -0.3701932900023685 -0.6452836355496715
3172 -1.3820255974290208 0.9231880513736606 0.12971342613513193
3570 -1.6933525284910147 0.9722182609121223 0.8863191210389678
3180 0.3046222316984372 -2.1306931179123243 1.6042685936809074
3175 -0.18482007406734485 0.4942413672103655 -0.7942930983910702
3176 0.09323354528430433 -2.2988425416166103 -1.4650082944258582
3574 -1.8654351526376522 -1.2732581780017151 1.2041177079602978
3184 0.37550785647758134 -0.22053936201949983 -0.4756986539758861
3221 0.9424889115943579 1.284958237385371 0.374342663502882
3179 0.633382411109193 2.4414748408478264 1.8790834245045827
3578 -0.19022844880515527 0.38113462746808563 0.37950523858078694
3582 0.42208024461214405 -0.42472606578543975 0.17816280663760503
3229 0.6702585205472782 -1.0975971928377066 0.9098569685050057
3187 0.44185576010628086 -1.7757697033268598 0.015789464941194768
3586 -1.081273403014203 0.6562711445151105 0.2144274701458695
3195 0.19902162736037704 1.161194858926943 -0.6021787794457618
3196 -2.1380043040622123 0.3805968554194961 0.680154966039809
3590 0.03199637265191147 -0.29668442922844673 -1.1038488532437745
3594 0.24325273008600984 0.2968609829276989 -1.582665705991469
3164 0.40913736167017783 1.799952193417678 -2.7130023030479253
3200 -0.7613765415160407 1.283451647599924 -0.6449288224358752
3199 -0.008635394218059244 -0.5147078258352241 0.7953562440222609
3598 0.9588103770986425 -0.1581627514203517 0.04046805852165564
3208 0.8335699518361153 0.360623190308208 1.4794004552889317
3602 -0.8583400184496647 -0.3807690137262938 -0.6001046248934497
3605 -1.3995465830730391 -0.7013355727853293 -0.7685123204446963
3204 0.3494251698423927 0.37705310479715853 -0.2169407702187399
3606 -1.0947268254203513 0.5933436037944857 -0.4276361361512141
3212 -0.3912381637597531 -1.1507311075879454 0.13957592661712515
3610 -0.06986879645980867 0.6180246627099754 -0.49767581471729977
3609 -0.9671645668779701 -0.6280809978494146 1.743854185461727
3216 -0.4011797760597337 0.5500167917361048 0.16711371120431198
3220 -0.7696070166020073 -1.1831833040746254 -0.5153489920851994
3614 -0.04505388523917226 0.3824493887748144 0.8243115052176837
3617 -0.5745366434710606 -1.095186565161007 -1.26467809384609
3613 -1.3701798292712417 0.3986170302004952 -0.20513577665040023
3224 0.2890236738452294 -1.418952599387688 0.5128218719523234
3618 -1.4161854800524192 -1.5998099203644183 0.7363947805073542
3622 1.481052773351234 -0.4844281827033858 -0.6236003639879156
3228 -1.527433603505349 -0.5160454501738745 0.6031256772325522
3626 -0.22852654758934982 -0.606417091598126 0.5058847642455041
3232 -0.42537256624444125 0.9903098090699639 -0.3443290243161003
3629 -0.009359397897323702 0.6094913966579634 -1.187197689269637
3625 -0.9044754865644168 -0.43123451647865063 -0.9430657218668701
3236 -2.0089404268122766 -0.2757776827954425 -0.2703763748023619
3630 0.04600443177232674 1.510965998922074 1.1290031372101945
3634 0.3188580005772273 -1.533269123577621 -1.7112027433012997
3601 -1.8452646818893863 -0.2813186902991645 -0.15440868006370462
3240 0.1835404828495053 -0.4886147851311124 1.3918136130047125
3638 1.269513621980026 -0.006935926964209613 2.81696546424366
3637 1.0522398487520783 0.07227122983777091 0.5385644897517313
3203 -0.4104259789864436 -1.5562099143579884 0.1502024294359224
3248 -0.8261918827524674 -1.4397885710459986 -1.104897776933288
3645 0.3677563361779759 -0.3488931640177129 1.5128448175295628
3642 -0.641397808885771 0.772894486540328 -1.1573627041235157
3207 1.3043780556337237 -0.7730191328870751 -0.8450614684583994
3211 -0.021003496053707355 -1.2000760415288423 0.2527639710479636
3252 -1.5637476088240403 -0.4404001772803608 -0.88199592543664
3649 0.08915379914020863 -2.887989968970502 -0.6788279383837263
3646 0.959117567522458 -1.6425322458310854 1.1068688722102216
3650 0.09135917508625573 0.11930566366704733 -0.2750012893436901
3256 -0.038936373970901925 -0.15022839162032792 -0.548026088932507
3215 -0.29269707979543574 -0.6112525431927217 0.09494759728535074
3653 -0.9346750746138556 1.353907639743043 1.9041131021326123
3260 -1.4970585137350365 -0.544736097739525 0.927985983691089
3657 1.7128704178499445 1.6050100511159082 0.8335183054978966
3654 0.04429888996519049 -0.07280596966303189 1.9870659739624847
3223 0.08975455649912267 1.6625139054588107 -2.0066487662712853
3219 0.3829515616271219 1.8148212751291175 -1.4577289097122514
3264 -0.7781388677193045 -1.3399809049941591 3.066763187379995
3661 3.295129874473327 -1.6277047669425029 -0.7566823696739517
3658 -0.13854550643667493 -1.1831192556087977 -0.44851942300342923
3662 1.5793451119895523 -0.1691536299518518 0.41853472088860694
3227 -0.11799599287501174 -1.6732994525086304 -1.8606567434693893
3268 1.5854418112280946 -1.5968909108959963 1.839600537165654
3665 -1.6409499191747012 0.3080694630020376 0.44186779132513926
3669 -0.06643178993303323 -0.15221281349401286 -0.1431961920712616
3272 -0.5888775147272083 0.6432200192039471 -0.2700272717089288
3666 -0.3932863496552393 -1.82593395085395 -1.4095227467546438
3231 0.8029551595763377 0.18319298835589987 -0.35937548579448464
3276 -1.1151244746178743 -1.0813328549216574 -0.6991208402540638
3673 0.7283178705316925 0.185003910829224 -1.1586366866843973
3674 1.1160746611436332 1.0225082862223147 -1.5133199808900797
3670 -1.2968059354806556 0.04011984805970896 1.0098023724955314
3244 -0.5817159827128382 1.4673552974487352 0.4265936328379206
3641 -1.6436810958240768 -0.05392786374198624 -0.5642485053200258
3235 -1.6307434752252254 1.74688593756376 0.1898330091442279
3239 -1.1239196313338646 -0.7606036747477447 1.291841095844545
3280 -1.1003317977518003 -0.680112880578954 0.17595708985849984
3677 -0.5264088967476912 0.5808144783694866 0.05101910569122515
3678 0.8165637027203492 0.1715065439058255 1.2092963410179292
3243 -0.8053506006552809 -1.0252570731047295 0.768804707727997
3685 -0.14580803479232504 -0.6461475274431417 0.8228178425092227
3247 0.2114890734775889 1.6646034776372083 1.8425766809825972
3251 2.475711984098562 -0.8288822299772169 1.524929392437676
3689 1.822482134800053 -0.602460672468514 0.3036668341919412
3693 -0.2147742835879834 -0.3037829420309963 0.2334896404403116
3255 -0.8332393171028157 -1.2099939311299797 1.6727463686982704
3697 0.006771901522716364 1.0714801902979096 -0.5200068371689524
3259 0.08283247531218957 1.2463959974501764 -0.5319700754066211
3263 0.6945486968461915 -2.685822710627831 0.7090515416999966
3701 0.3689092246981936 0.08401241986657795 -0.5018928077016404
3304 -1.2405748000111734 -0.5453458028329227 -0.8037870572952045
3267 -1.4042402602705277 0.8554521229271705 0.5366996364743387
3705 -0.7359283351979157 1.8405940306498563 0.45327175163765104
3709 0.8189648502491212 0.8706500406332977 -1.345604020288732
3312 -0.21310832325094278 1.9894272325941933 0.8923895375645904
3271 0.20228930527428032 1.4550703432805367 -0.41391246798000986
3713 -0.6112720877097848 -0.6629808088056335 -1.4900357787069696
3275 1.701559781316995 0.2981582285359736 1.1727915828103241
3681 0.963880899464866 1.7554776184929333 1.3214590943277942
3279 0.6106790472624387 0.7020089266565614 0.7046472240096426
3717 -2.95856963976025 0.4844777743965145 -0.07758265856260095
3288 0.28551067601701896 0.022881071088032078 0.18018451711914715
3283 -1.2408508476935662 -0.34796052972607233 0.0028751204378464168
3682 -2.170191154730889 -1.0668921090094936 0.07099264819989445
3725 -0.7009450813502277 -0.8438536824934944 1.4814415762991564
3721 -0.1070339705379183 1.187707954861874 0.19954803395577747
3292 -2.5690480927982433 0.3873660819789561 0.4585637291586416
3686 -0.2034684228740083 -1.015540508545613 0.35294432561278916
3287 0.21021518243271659 -0.5689816317588096 -0.2663056988832012
3291 0.43425861173718927 -0.7212131700623188 -0.18643755100232756
3690 -2.5273461790161345 -1.1625596338501458 0.9251967779604503
3729 -1.294772752590809 -0.25376453734963444 0.8317708737525786
3296 0.29762485034437813 1.6505072722419802 1.179780324081447
3300 -0.2125600276617405 1.1826678517252998 -0.2795652072243406
3295 -1.594627876835062 1.9728256650268219 -0.7113681463976756
3694 0.07176441464272632 -1.4528987083083502 1.6738934960825063
3737 1.2253190813882961 -2.581059285451734 -0.2732573359279169
3733 0.306346133884192 1.3859637425421196 0.3717277562558654
3299 0.7403864566358984 -0.4135669026406637 0.7737312143738044
3303 0.0082068982821714 0.008768623455803436 0.5734430475769646
3698 -0.50773379437798 -0.7678981443532017 0.8254447806692577
3702 -1.8997946920315987 -0.6905525561351478 -0.19504874681357537
3741 0.04173775514459488 0.45874566271835066 0.3694309131395154
3308 0.5917405687914579 -0.2364480325033684 0.04421914075472694
3307 0.9901225277951713 0.09633957301662538 -1.9240888061219976
3706 -1.002047669322398 1.0344447991193033 1.3689581302792984
3749 1.1629699703116698 1.1194427329617098 -0.26833919556279345
3745 -0.3204512470212522 1.0799471997747327 0.0021493423229930328
3316 -0.6764687025584765 -1.17612338865353 -0.6244584235469492
3311 1.2726766692144122 -0.23977249640187212 -1.1738882964889399
3710 0.8398967552323585 1.8974473513012597 -0.15611772895176132
3753 -0.36859627823027624 -1.6299726320470058 -1.5182638092346026
3714 -0.6250924972516056 0.36130641158469284 -0.21581771686494727
3320 -1.2222865518142476 -0.6220062462708679 0.9446638183262736
3284 -0.7849217790779145 -0.5755051272442889 0.4094254474682156
3315 0.1877067327011467 0.0005212025984346766 -0.3397797645737614
3319 -1.1788710812556449 0.637630823215588 -0.7141008620639974
3718 -0.09304324956817145 -1.153479926756691 0.6237001192445244
3757 0.8327961088800291 0.20868042943529466 0.2961461253517855
3328 1.3866635339406932 0.8056969485453485 -0.6749981381019475
3722 -0.28510771477783425 0.6458980672805308 1.8507997890235586
3726 -0.400696538905307 -0.7889474529520519 -0.9912116244267133
3332 0.7587851654607818 0.5056550523513346 1.0604437126123263
3730 -0.297664331774531 -0.5848962438441548 0.31197017863940063
3331 0.6562495129414851 -0.05666891996498345 -0.7627079845719608
3336 -0.3468840281048444 1.0425616648043101 0.32777476562512675
3340 -0.07982484417448645 -1.6071986781227134 0.13938452845142324
3734 -0.3555606758129045 -2.0373161894613436 -0.7369879581158887
3335 1.8135228355147568 -1.2418230396751277 0.7790269471816048
3738 0.251506115670645 -0.6600734311044552 -1.3699973204517508
3344 0.967300598495627 -0.2779604548171288 -1.850814816945495
3742 0.6742504630863011 1.188695056613782 -0.4796003884298255
3348 0.453101114030701 0.3102829043371733 -1.1631635954374304
3746 -1.9159325312108986 0.3854559252349343 0.668605445052523
3352 -0.09912168347169718 -1.584585037117528 -0.005577664518019324
3347 2.4165141493481777 -0.7036637868702896 1.2124881837091581
3356 -0.18728056722800793 0.4183937014848329 1.94780842446519
3750 -0.04466342278710681 -1.0473351718561406 -2.0699627863457626
3351 -0.6253414542643329 -0.7683229520404671 0.442466388068547
3754 0.9891902647047601 -0.8483969122177374 1.9024582086457988
3355 0.8794920355895661 -0.7353187958019844 -1.0201395645373934
3324 0.8500753492716723 0.04189150584039595 0.9790757496404291
3360 -1.4642029234451823 -1.6695186434591467 0.7678290743707629
3758 0.3465671284955761 0.2961396423628543 -0.20315251872416903
3323 0.3551935748057168 1.2909670977674574 0.934056221810116
3327 0.9860913832143509 -0.30104425657973805 0.8055993826588459
3368 0.7573957271700266 -0.41439752706282185 1.2407139102444025
3762 0.27331601972999287 -0.999231774308221 -1.8434334184701737
3765 -0.2550110257528869 -2.0004222258401194 -0.00795032224786003
3766 0.18814065954644443 -0.8995199674693249 -0.8712104389237493
3372 0.8617499151510767 0.9754209748077065 1.3334612789118268
3769 -0.713938396973794 0.4261270468594988 1.4704579971749527
3770 -0.12815640871582068 -0.632324742449909 0.5809906976774597
3773 0.11243820202430897 0.5521024975575765 0.5537291095753657
3376 -0.7711290819523351 0.4165316543022335 -0.43637716348005035
3380 2.254848400568504 -0.8532850824406358 0.22282449183815392
3774 -0.12697571300379354 1.404595096086126 -1.1213001665094469
3777 1.277395030029448 0.1395319096111741 1.3151334095803326
3339 -1.5303829943007232 0.6522697601291876 -0.2919727262571966
3343 -0.5069866103141135 1.4259665770228298 -0.7244657728406851
3778 1.3614777690104143 0.9066263184778612 0.33358156613971146
3384 0.32598151601965464 0.2523345838094305 0.748839206162687
3781 -1.017160590484446 -0.5433258844431126 -1.3896901014609935
3782 -0.5206833593248895 -0.29698066698924963 -0.1532835902185732
3388 1.474136393586823 0.5304485771056489 0.3344883370966332
3785 0.629112894232968 1.5512734517132334 1.4924576146547173
3786 1.7402548477477844 -0.8878204559101915 -0.4963431504597999
3789 -1.0458282902518239 0.10005956469257808 0.17969933295015214
3392 -0.6713691713842129 3.464619414343206 -0.0037304787055655736
3396 -1.3680711449714027 1.0368432041861715 0.9672901335704863
3790 0.9658480399418704 0.9116904517991389 0.4690753589897881
3793 2.1610939114132726 0.6496984570403166 0.20346711965568937
3794 -2.3161106244350704 -0.09828135408059452 0.7689359609508631
3359 1.7014708446263689 -1.0008103565496123 0.7695360746111435
3761 1.028462371929899 -0.35186552077958366 0.4968987839195802
3364 0.13720667623733546 0.7493803201598259 -1.6428604874119406
3400 0.5180637693229387 -0.5529758809047989 0.6783429667511345
3797 1.01558274300428 -0.7652702287154926 1.198785810895378
3798 -0.31820030720342884 0.28451760631892375 -0.5972890464306225
3363 0.14079006139195044 -0.33447731801462316 1.4829784732524058
3805 0.12718396239602292 0.017651623150280057 -0.7361189230877672
3408 -0.09859548097262485 0.45762185535109245 0.3082486785633851
3367 0.8815763230028711 1.7496345428448854 -0.5699842653637553
3371 -1.1138032391131885 -0.06043689336150273 -0.14043090108005046
3809 -0.1302366938065505 0.588800757671048 0.3154613035891109
3412 0.9792979196516393 1.1169818863736238 -0.4979603493472072
3813 0.5182110757529902 -1.2538391845867547 0.725085914942307
3375 0.28526956041645285 -0.6410661381217053 -0.3338329066906066
3817 -0.077395254769968 0.3283946706767934 -1.2490148105168382
3420 0.1610559627839351 0.6639591335659593 -0.26962553314311966
3416 2.144752076966029 1.2721124789878504 0.8418253616065152
3379 -1.433143262523017 0.5702929658771202 -0.47274533186557066
3821 -0.10420911721722022 -0.49469827595600285 -0.4444973970896583
3383 -0.548846456340264 -0.41410800925815644 0.35178979688285417
3424 0.6725259139994318 -0.459837908107832 0.4866811569587243
3387 -1.7314506181103186 -1.7573747467138339 0.5479860904401289
3825 0.9072084140727019 0.823054457170156 -0.8677112769715521
3428 0.45626384034522116 -1.0790449679523693 1.5197842180424588
3829 0.020707938946198233 0.6069545774082433 0.7500287518124555
3391 2.171118154865542 0.4392463383436426 0.2990792296407338
3833 -1.366077682672767 0.6760934979587615 0.05039154736550122
3395 0.9947612768828002 -0.11893548063368801 -1.1327342877026185
3436 1.6114694862413963 1.341459546155555 1.380683849356043
3801 0.06168683747977595 -0.6924526683897602 0.459336454154626
3404 0.6268179052879949 0.33681858763953426 1.0035577186252207
3399 0.12189053698719512 -0.6061157557752549 -1.4301796599951397
3837 0.4183322746238086 -0.20172083226914897 0.0711979963721137
3440 0.7669823424281318 -0.49838046266615316 0.37824234427792136
3403 -0.9719850611576341 1.4845535579893232 1.2092417942330194
3802 -0.3500601634786882 0.5203736387301834 1.1799557858560046
3845 -0.21783784800078537 1.6537697605642503 0.8925720840185061
3407 -0.8884081514769456 1.2714486018387194 1.171430568117796
3806 -0.2887016630966002 1.66729964823401 -0.03227580835722197
3810 0.07171072211873494 1.2304160993547058 0.33362510819999114
3411 -0.06589159922293517 0.7632353138528509 0.16694217891082155
3849 0.49886285248568235 2.450093477533668 -0.8058337026507889
3853 -0.1847190243859177 1.2247665470365907 0.8496940605316098
3415 -1.4945396164912033 -0.4292943558010969 -0.14266208172086495
3814 0.6069495269156728 -1.253143842349916 -0.6126025731836373
3857 0.24650114481729551 1.1919376924462495 -1.255207807826164
3419 0.9760033073699896 -0.4309715507471122 1.3455778319031702
3423 0.6889832914229896 0.7909844259168605 -0.014071328679345818
3818 0.24178461905441717 0.43729644863271233 0.24415763666571408
3861 -0.1415225107628279 -0.5162053524951425 0.3648405299067102
3822 0.38242371988349566 0.6464599662920504 0.4215200963799778
3432 -0.02042759599209816 0.7120658812578777 -0.15207666984293117
3427 -1.3989446647694699 -0.5146101993159378 0.24927382389484026
3826 0.14815559689439525 1.8172878613613712 0.4815594738712291
3865 0.2365308293560307 -1.898222494625092 0.5717724672600911
3869 1.090287833830839 1.3705169780329038 -2.063722394313408
3431 -0.8273225459883461 -0.7917336119608973 0.9887751297345696
3830 -0.2842909930155559 1.98891956737027 -0.013284477017884521
3873 1.2503637167635173 -0.38684251657493124 0.08163260031910305
3435 -2.186543500690864 -0.905479582834724 -0.38652712644401094
3834 1.4232800180960816 0.9080633636378371 -2.3545465723975503
3841 0.19961890851754233 -0.34869049568912164 0.3992758045816135
3439 1.3351210500263562 0.42019606462656606 -0.6928830293503793
3838 -0.5841630197499298 2.3104833336268302 -0.02523041143401381
3877 -0.5461537517520247 0.07340370743446276 -0.12483633718059317
3448 1.7621587371451577 -0.1224586592918273 1.0872709219926393
3842 0.724937860421587 0.5610218514513289 0.1568125372297159
3443 -0.5455265740927602 -0.012848972243226607 -1.3174217708714984
3846 0.22227711686368365 0.30348145388201475 -0.13003768873182753
3447 -0.8054868629728109 0.3044705540327365 0.5588958851745391
3452 -2.4692362677915685 -1.968687738575189 -0.6856144040374618
3850 -0.34860204556184693 1.791896169595442 -0.43063203570224234
3451 -0.2210203318206859 -0.334987174062882 -1.846817090658455
3456 0.547536898168608 -0.5593550375050539 0.578051056735414
3460 -0.47390879318340673 1.0717135273924427 -1.0798752653073527
3854 0.10009851715819049 -0.01909105446343238 1.2628699566693824
3455 -1.264894080445294 1.4923932191254534 0.5973565331919232
3464 -1.1053966809042857 1.0906553151702991 -1.0788712767293296
3858 0.15997596750570092 -0.7670554975649553 0.9604627284785534
3862 -2.5333385407806857 0.8403880827387723 -0.9442106745999747
3459 -1.466547337704011 1.6896160640596167 -1.044799027110337
3463 0.31569520809217283 2.5180273911760946 -0.5431169467912006
3901 0.4335334667934449 1.4365630758610415 -0.37118620892709314
3468 0.19212886640297502 0.4715407760073711 0.8914976289227426
3866 1.2107758813651943 -2.386395302823428 0.014240016534505531
3467 -1.8056413447039747 0.7163396726351792 -0.9098288655181581
3472 0.2122221191317294 1.3603198848240325 0.09158576683392679
3476 1.618594891475159 -0.13286128050304935 0.25860422461886173
3870 -0.8043862553708453 -0.6055439220022075 -0.6060591012213523
3471 -0.21654072032116423 -0.05141984171793949 -1.3842364172947716
3874 -0.2836621102929253 1.812312625044721 -1.2337091763681045
3444 0.5325500881395476 -0.3579998282571717 -0.7410180398371127
3475 0.6938042002903271 -1.3810511138743145 -0.865658541844799
3480 -0.41197094292468406 1.0434271335572152 -0.7410804934856737
3878 0.5261813338894287 0.0697819700419623 1.0289599191842256
3479 -0.3434696836071885 0.11385463226605638 -0.30531595287589375
3885 0.060886360271892655 -0.530463038766421 -0.12008155469339407
3488 0.2709713169849702 -0.8787790952550504 -1.4300034183843093
3882 -0.3612683969349669 0.6436683557484147 -0.5706091089936149
3484 -0.37501052018715136 -0.9301183305347858 -0.0473201308797738
3886 -0.1248078682132261 0.6213477608347461 1.0456717987588886
3889 -0.477380757387657 0.6539751993823988 0.6864578405313261
3492 0.045219786931391275 -0.6914099427328371 -0.10135842317312106
3890 2.0521965449948008 -0.7246830578857834 1.3075501691804852
3893 -0.8714269198777983 1.917266065719965 -1.680985927448382
3496 -0.9742673648377569 0.18803400307931759 1.2012184923854907
3897 -0.3028150993845782 1.6625350593623154 0.7232835507398356
3500 -2.054207736524299 0.004232620370506727 -0.3476163819356341
3894 0.656265290659139 0.2164991490288579 -1.0765082882107169
3898 0.9427529536447239 -0.5486761491530332 0.5730183641819191
3504 0.1537557619442838 0.9625797458289695 -2.5360826030568755
3902 0.6625058269086014 -1.8753291858219456 -0.052303480792537195
3909 -0.7971446258527372 0.746524562591994 0.10806011002723802
3905 -0.2702471492441682 1.0360461502762963 -0.43748379420985206
3508 0.8801809398236898 -0.47996322848234174 -0.10030042504416893
3906 -0.5974572481009138 0.4888635839061054 -0.2906937033672042
3512 0.872863104638855 -0.02301940000223697 -0.8817931134036844
3913 -0.249411734361137 0.9692516789881885 0.815840983415039
3516 0.039737142706302665 0.9034379285390729 -1.5230548979137206
3910 0.6837410453252063 -0.8910291924025506 0.343433595895349
3914 -0.8036792412399542 -0.06846176353494199 -0.0776875230593893
3881 1.6877119522674586 -0.37888558508733444 -1.756547088903749
3917 -0.0626349829236315 1.436509920730351 -0.40683656309580934
3520 2.102921919632916 -0.6520219038701718 -0.9881175325349493
3918 0.3878077287360919 -0.33462062332133574 -0.32602311721388905
3483 -0.6094528192226459 -0.6595738109627591 -0.7296746259530944
3528 -1.2825900407365536 0.03774202706520397 0.5327096586874298
3925 0.5413444637002731 0.643282962177248 -1.0790814470375736
3524 0.11862241157019293 0.9754258264163 -0.14581000849738773
3922 1.3187059141928366 -0.09088787843765378 -0.46791482297258574
3487 -0.3738627136399398 0.23457492363528668 -0.5851388911959502
3491 -0.2865690467792306 0.3395168059331438 -0.36287603563213816
3929 -0.3437848047451994 -3.0079938688823606 -0.6316978477237951
3532 -0.3220754927964307 1.1344555262752478 0.42339429534753104
3930 0.19941090312897544 -1.1690304629556825 -1.0205074791236948
3933 1.4754203287000132 0.9900576494022466 -0.26266990285025127
3495 0.17810916127826712 -1.2682334388186949 1.6196025082327383
3540 -0.056751761025964055 -0.005283555150465663 0.47894393126320567
3937 1.071326228471902 0.8554833256970249 -0.2798968341925942
3536 0.6381293940376538 -0.9790480214919098 0.05029466106112343
3499 -0.1525732368717008 -0.3305580463113633 -0.5628761420296595
3503 1.1333629626637296 0.1481196440606941 0.4012360185556175
3941 -1.6229906857779424 -1.323618450010741 -0.2369616659415137
3544 -0.10118889341415452 -1.9375953895833786 0.034043931508933624
3507 0.5634728809821337 0.15431377859284073 -0.5460095741962724
3548 -1.11260902553979 -0.924391573838553 -2.290213193313023
3945 -0.11165743114557017 -0.9259373394877379 0.5514459906178398
3949 -0.7931203391996487 -0.4015472254383205 0.3190312773137503
3552 1.3361956279091747 0.4311787894632859 0.18898728378696578
3511 1.276112487600902 -0.060989789440271155 0.7815976266585718
3556 -1.1374871886403817 -0.5987097367827028 -0.2974922426830995
3953 -3.5289351908255338 -0.7477516532662544 -0.11238319655062483
3515 -0.6846860296383641 -0.06303168386722527 0.7264491698551112
3921 -0.7608426232186463 -1.1675680170276335 0.20139006502888035
3519 -0.4468019425641966 -0.5008135882049913 0.2827410152665257
3560 -1.0013476084435708 0.6584735746702114 1.0966669246250493
3957 -1.7868208012180535 0.6802142647727939 -1.0071918849761008
3523 1.261719729464147 -0.8586323496028513 1.1102282783835224
3965 -2.188910712857183 -0.553619405063909 -1.2900681503724651
3527 -0.7641105183383259 0.7016342705862246 0.12932777854143682
3961 1.7931665691754117 0.1901126512467294 -0.6492498922638764
3926 0.6948995832699599 -0.36842961277773834 0.44892319609043563
3531 -0.10705783791503075 -1.2802586628601471 0.6403619581223883
3969 -0.14528385708707922 -0.05604484675985139 0.0544618378543386
3934 -0.09495594307216595 -0.240819612072409 0.5995878269073373
3973 -1.231472027412771 -0.3783756897647798 0.692175941017033
3535 0.7432894083714475 -0.6744375971784611 -0.7998766443619352
3977 -1.1298910006352094 0.9111233981533837 -0.13463495084990282
3938 0.012295195871573562 -0.15893344318069624 -1.3367562288702755
3942 -1.742119023286937 -0.21878545431420368 0.5079512174905315
3539 0.7012397567339176 0.8023233687488021 0.18382811136518543
3981 1.4581310349366479 -0.11202961679264828 0.14639360798033485
3543 0.6455138117369716 -0.4071862774973292 -0.30001076730741283
3946 0.8388108430693012 -1.4624584701748644 1.6979832638243697
3547 0.9587832256452117 1.020635594554906 -0.5474731164482184
3985 0.15218443718721214 -1.302192488700556 0.11711081084545563
3989 0.09844345678583233 -0.46108889304469647 -0.3094448249780612
3950 0.27422756042556884 0.8315919505080914 0.9752469033209871
3551 -0.23894151103077405 -0.4564980308958272 0.11178603284443893
3993 0.09753125670064845 1.3748073368498575 -1.1979135822593916
3954 -2.112213046749012 0.18873903578261259 0.9394762955016136
3555 -0.7698844082861089 -0.023941405457497344 -0.9933051405500075
3958 -0.16071550077669577 -0.9746366497934057 -0.4588423238234232
3559 -0.8554267244733769 0.2137627286118086 0.6695883744561685
3997 1.4830478130437779 -1.8138868262472068 -1.0684748755764413
3563 -0.1427732045215185 0.05122829415969053 -1.032948630053687
3568 0.7338050176331045 -0.2705098770335749 0.987703539997228
3962 -0.9367237305763667 -0.2666656187786965 -0.4688101089553047
3966 0.9252577152324993 0.15363445149348773 0.221912015511371
3567 1.3980325033181646 0.6004524191095822 0.03074143512800198
3572 -0.4293444725757633 -0.27551672594885934 0.5274533764537241
3571 -0.4834502149632252 -2.057911951526039 0.09104322514624977
3970 -0.097938511376919 1.9253281319454483 0.5564194601342957
3576 -0.7169858411071738 0.6592023865445552 1.8045336486612589
3575 1.1104713494019218 1.451556879533459 1.3813510523979027
3580 0.5838477843379974 0.24038368669776247 -1.6761814408299192
3974 0.5997622438294479 -0.7826532075539436 -0.4486590216937439
3621 2.5792706826086906 -0.30144335029750646 -2.2872193874115774
3579 0.21523233821591145 -0.15467162809076282 -0.6894776736285666
3583 -1.4199747011998998 0.42157669499154493 1.5630536885356034
3584 1.8531871344051447 -1.849470706704832 -0.8911051195017905
3978 0.9539872942007588 1.2595272945988407 0.267809742006687
3982 -0.5298710764416557 -0.683330094825428 1.460688756689779
3587 1.7876014419146533 1.427289112087979 -1.3974265884773578
3588 0.0035726262243862823 -0.17361365623467073 0.9731282336812394
3986 -1.5551007416308664 0.5992898140732549 -0.48795452804953166
3592 -0.44809576020923714 -0.0413183205499531 -0.5340258367894265
3633 0.032867988976076144 -0.6625878691729872 0.5955399393791506
3596 -0.021637076725572642 -0.7976080980117651 0.7233844129197213
3591 1.7063267785578458 -1.7677144051455513 -0.32034292996248825
3990 0.8723707663106374 0.65441208877249 -0.13840781093122623
3595 0.10663901227592305 0.005979579670496945 1.0347142500233069
3994 1.120227470949072 -2.3047432028716863 -0.26143329273007043
3564 1.2409707883299668 -1.4748934539970229 0.46362175775839964
3600 0.45276301974799654 0.751407030089443 -1.954470654086068
3599 1.5917855168728399 -0.4272669829206424 -0.6963291810804879
3998 0.5834522509492356 0.5147866622674762 0.13855433852511606
2 0.47603061202440855 -1.2887946267349113 0.10229076647122637
3608 -0.7380350925013691 2.170431861906378 -0.2789885554936308
3612 1.4673237249215612 -1.870726721348173 -1.3618839172026482
14 0.14514080325809178 -0.3163570218125915 0.07426093437828214
3616 -0.23812329951158737 -1.019106566800011 1.0737626936738947
3620 0.01647496305125626 -0.8938117832031965 0.1848939427530116
22 2.0830541457363547 0.4132398452012834 1.187105847411767
3624 -0.2222208801495109 -1.462192254332567 -0.5172997059392281
3619 -0.29839708216390404 -0.8172914394055668 -0.8385333864444746
3628 0.7074131738766064 -0.832650495410084 0.7812420219953599
3632 -0.15876205382518893 1.3192021805085772 1.2799868579002112
30 0.032510316299122696 0.45184169723898415 -1.172226372367447
33 -0.4292174077322647 -0.9652905046951357 -0.9181826362764739
34 -0.9061156328244614 -1.7627864424606217 1.1982556017218908
3636 0.4769782346900705 -1.3337586163902213 -0.48103716868828744
3604 -0.47044604218858616 1.8176842986422472 1.4852540903752864
3640 -0.824838622975549 2.305800315919441 -2.0657027458212136
45 -0.189099782201808 0.009777745793020284 -0.26677954354871897
3603 -0.6567754388515635 -0.04286717940948395 0.703692405242646
3648 0.009534607133751496 1.3969496402953838 -0.5870760158411741
46 0.4750900590310981 0.19735689243746152 1.7698370883255945
3611 0.6377725065169488 -0.019703549017485146 -0.09146753218120343
3607 -0.08707273367802745 0.5063330248224202 0.7302826244512289
3652 0.5734796501333679 -0.21393899549789389 -1.1543626714885669
3615 -0.11740975798157 1.8589772636294941 -0.04938612092182869
3656 -0.3818102939077719 -0.7328063530536602 -1.2046034927048805
3660 -1.3992523760296582 -1.050091723445359 -1.1005351776410306
3623 -0.3367812004025606 -1.7742664044592567 0.4106232186377173
3664 0.3815520351318769 -0.18091223377356996 0.47372831820140643
65 -1.586791053478082 1.1668213644892789 0.9819437513482514
3627 0.46010643901993775 -0.7593141341952467 0.6009541715001436
3668 0.18870506483411162 0.41302198336918894 -1.0421990995917758
3672 1.2573406680829444 0.579524104101879 -0.15266420180710066
70 0.9771019796650376 -0.9292969957851264 0.42337701876457356
3635 1.3944901820689664 0.03113763574756677 0.24913793860641026
3631 -1.6635099486726173 0.4739644157636417 0.8482522243375686
3676 -0.7453253924040665 0.5458271313710292 -1.7130476339299516
3644 -0.017425056331508492 0.34553280977129014 0.2445939261374073
3639 1.338686174367959 -0.8796608981575506 0.2005834627756561
3680 -0.1569411796471943 0.812400022448105 -0.35670453594200147
3643 1.469584103066893 1.6087061966558798 1.2460029760056455
81 -0.4112089977665909 -0.6805160885675622 -0.8337967985931706
50 1.894845660095514 1.915865826229623 0.8858610002329778
3647 -1.2707463177964502 -0.4823529483970888 -0.7382241521203066
3651 1.5559425846064168 0.9066629173835695 -1.4934687245235356
97 -0.2869090665298266 -0.5665525670859028 0.43328253353696405
3655 0.9546629475260725 -0.307212249378663 0.23081436372030065
58 -0.6519855915708795 -1.0946550528335028 -3.186537965948914
3659 0.6608234319921065 0.5540727932763452 1.3802387938588219
3663 -0.8100317542672142 0.09684242625157843 0.20072517089140032
105 -0.3661237344200759 -0.1247215429062843 0.39047582298322003
109 0.14864932163558225 -0.3097161079020087 0.497799440497353
3667 1.3343745066315718 1.1071830382070298 1.1020661283955233
3708 -0.7607869593796461 -0.683064751348717 0.8281724813472553
113 0.09310044686752121 -0.052546194014405086 -0.044513511202080774
3671 -0.801862078377644 -1.4200404774005093 0.04857046194048054
3675 1.2614204941653153 0.8747290308124467 -0.6321523916907413
3679 -0.2879478727144033 -0.8067329629668435 -0.5945960359575777
3688 1.1465398367234 -0.9797543144166112 -0.19147960451188326
3684 -0.6883860491275854 0.7334774206827985 -1.0848062608440097
3683 3.2718826185595344 0.13365476634054207 -0.1994111420347209
3692 0.05672427828368172 1.2192601303004649 -0.12367992741426596
3687 -1.4660907911745327 1.8746945282851424 0.8330056183568589
3691 -1.8936346590215518 -1.0883953801435278 1.1127184240790124
94 1.4207835420603154 0.5651117660960795 -0.6325148316440644
133 -0.5079171426841473 -0.8095237288680505 1.0434506893185524
3700 0.2308382523563862 0.6877056040812115 0.3483226242345403
3696 -0.7466039546418244 0.7202847880764447 -0.7708600279020895
3695 -1.0737289163700152 -1.173065084751996 1.1191343642368354
102 2.341128668172949 -0.8965227428099244 -1.9285109526745747
3704 0.004472942783412924 1.496145863469826 -0.9770611295924003
3699 -0.9724183296006441 0.8310097327374756 0.05037780888573998
3703 -0.11499681465233154 0.9289478529469042 -0.22035982416515656
145 -1.3349804970669328 -0.5844306841104141 -1.0778449409471016
106 0.4888568639174165 -0.5309734692669532 -0.20632823927056843
3712 0.09789975052656223 -0.25530418804739535 -0.7228433314284644
3707 0.8688979518557195 1.9803968194822423 0.44986785061899554
3716 0.2017822713337282 0.6512495000826802 1.5364391406446525
153 0.10279727499331566 -1.7996762836085003 0.9006300222094612
110 1.061457025510513 1.1961552868048886 0.9107568678040407
3711 1.4629738554817522 -1.0713012354566245 1.9552097711304806
3715 -2.7866172275244887 -0.8134134202345268 -0.7077747092404578
118 -1.1001391866789065 -0.5805133662019336 -0.09815969118177194
3720 0.10889567362075615 -1.071465351486906 -0.060902053328260444
3719 -1.1150190392074895 1.3968420210065156 -1.0948922051173005
122 0.9213081635733652 -0.4538511260954894 -0.10489676195589663
3728 0.20212031805012545 -0.6845256990051244 0.3322838444801065
3732 -0.948495163952437 -0.3477748604235436 1.3548668058110815
3731 -0.6800278731875558 0.901209402342957 0.3392558611418972
3736 -0.4813648064969523 -0.6176752743934772 0.5928225642003673
3740 -1.881451635285447 -0.29406092240895193 -1.5342071708631007
3744 0.759959640692727 -0.6672627999774682 -0.36859723699308805
3743 -0.21534255646971953 0.10796822704129841 -0.23388729029446206
3748 -0.5351424057393038 -0.24088681829848196 -0.28147940064373395
3752 -0.020077626684170395 -0.20929928665277484 0.38095842099791516
150 -0.9271463831451761 -1.2831522182577824 -0.2521977420124106
154 2.483660186768929 0.607056074983762 0.7284284015445275
3756 -0.030487676299541668 -1.6925883765579235 -1.5071429548063868
3751 -0.46551188709422536 0.05705562806399809 1.753530774302451
158 -0.2202864305197253 0.31946996691112156 0.38347069524625915
3724 0.3026019980911288 -0.23587097008878766 1.0224315418673824
3760 -0.7719442117965962 -0.2508028047907345 -0.9698175123357444
162 0.015622801175437448 0.15801959180523598 -1.1503543676354182
3723 -0.7742122898866799 0.08080618747769779 -1.6008192789460194
3768 0.5120336640813311 0.6603885705761843 -0.40872448134563155
161 1.1857789599586976 0.19478221872596807 0.7802536768938287
166 -0.37652913996199744 0.17833869461764149 -0.052319600472545205
3727 -1.1559826427958735 -2.150252508529279 0.0447613729924946
170 0.004160739747468406 1.8401008224027742 0.14923795070545853
3772 -0.23031557613404727 0.22461636465686793 0.3429278029635482
3735 -1.20571865024427 1.0953907570874377 -0.8110098140899363
173 -1.0086824428233325 0.34723630734886746 -0.16764974471739633
174 0.7058597273162852 0.7472817163470301 -0.4861277060222567
3776 0.2732829988762004 -1.1992919467469534 0.1786559624407271
3780 0.5746595261310278 -0.7935072414418318 0.9995288692203488
178 0.9489167086326329 -0.16750802615715232 -1.3600744002493153
182 -0.7051195304053534 2.005799370068114 -0.04979491349773845
3739 -0.49043771339463055 -0.8934071414051629 -0.5194665229175746
3784 -0.6078431291983372 1.1702452690447867 1.1417532081949866
3747 -0.6324343216661 -0.06944947406880854 0.9006620887041147
3788 -0.40616441798266073 -0.4045038424814042 0.18986509680650665
3792 -2.373985112707771 -1.075853760150241 1.9711929058611986
193 -0.04371027467671359 1.2024143451785985 -1.2866207784522288
3755 0.13217148807270576 -0.28317239576512543 -0.15362826516724534
3796 -0.5862805473917428 -0.9183835329690165 0.09057643953751772
3759 1.0535853570476257 0.6771744760170252 0.08037887642972169
3764 0.6698657773143566 -0.43180876923313793 2.1071578304673233
197 0.08798830930461839 0.32522905962977133 -0.16403639791164232
198 -1.2712842774078643 1.1545645858391893 -1.1201969760330175
3800 0.5085613947690562 1.1691497885793154 -0.32204482260403566
205 -0.07442409856425415 0.4348891631536162 -0.4412518509331308
3763 0.4187568616710107 1.03801017073484 0.16254841416545338
3808 -0.46889356884011146 -1.176841291217348 2.0490657128173693
3767 0.6102523681097023 -0.017377293113910616 0.7384336565694807
3771 0.43362070450588325 -1.3059803097729337 1.3505836137497225
3812 0.3206030528128849 -0.2213676785745175 1.4648723643682888
3775 -0.8160123425129315 -0.42616808507540965 -1.0906342839716865
3816 -1.3625720550638063 -0.7674394465220611 0.6737119781370354
3820 0.1841307494042914 0.4790080266671944 0.8425733053593608
3779 0.12831932961329356 -2.9787601211799775 -0.4208613713554513
3824 -0.3803091471360342 1.145072722892484 0.8987450394628971
3783 -0.48153388925683 0.6404406017817378 -0.2885846033285449
3787 0.6936187251314394 -0.47098476980832865 0.12283480221217363
3828 0.863204942340804 -1.1884176938632167 1.5423603349621604
3791 -1.1249336166168205 0.3406996208474586 -0.7248598720778636
3795 -1.4107842168036728 0.4031468258183152 1.2623089906778746
3836 -1.001568402697026 -1.476059553936725 -0.5339760660848392
3804 -1.0148898642021649 1.2816138118518863 -1.4833389659800502
237 0.6726216795826532 -1.7629570123564269 -1.0093651690498184
3799 -0.49016425803647046 -1.5049436523203892 1.254552555880684
3840 -0.6264244478412224 -0.9749706495582892 1.4287969971043102
245 0.4699109493338158 0.6862029995755788 -0.01128984239946986
241 -1.5498605467703876 0.7246906239138704 -1.6054380624147673
3803 -0.6746753333781961 1.638539563861126 0.9210290529094236
206 0.882976402455804 -0.14078637927969398 -0.7467485426753768
249 -0.6055908274134649 0.2842754022176506 -0.9543094926582841
3807 0.1058906709517517 -0.4169369065139581 -0.5670730598676786
3811 1.4086366894695044 -0.22987844083545045 0.32544509342430444
214 -0.8179522877108969 -1.6091499829345715 1.6243455352854024
3815 -0.028796175743219028 -0.4010753845440801 0.9890063447040799
218 0.16667388461682756 -2.7997828505822326 -0.2490905742185296
3819 0.2655149674246693 0.40606770464320263 -2.998616847333442
3823 -1.2970374454912128 -0.3752458527276541 -0.2753606469720281
265 -0.5894661280012282 -0.0672143260269651 -0.8431862453659866
3832 0.8178939666989465 -0.08135160546385173 1.7206023113860847
269 0.4915544129649537 1.2496722300632948 -2.0089856830023303
226 1.7055796358622994 0.48923408983439354 -0.8721226702201115
3827 -1.2095438470508748 0.6267935209315066 -1.0953974924074366
230 -0.43887517286832484 -0.24073020484201102 -0.40749860336853483
234 0.05229572056600006 0.46739755014642026 -0.2195861842743734
3831 -0.6669938982036564 0.27030499166385663 -0.6236413822378929
3835 0.18079989279301253 -0.07068205377532888 0.8017715541537238
238 0.535643817364214 0.24614822804371012 0.4366750806465463
277 0.3295126922362125 1.0488297001170537 -1.9306703085858519
3839 -0.00043493041024536685 1.3885498849849387 0.3789217536348152
3848 0.7784858126200871 -0.5489086159346181 -0.27065306450405713
3843 0.29293102080205935 -1.3457533322266801 1.3024147742348922
250 -0.7032073826316774 -1.6659539639162924 -0.5394521386155142
3847 1.6664930110139138 1.4348808062007845 1.1443870200932975
3852 0.8253852081114952 0.4289274340684077 -1.4317539905808512
3851 -0.6452900450240823 -0.12824241005676773 -0.20002191653385457
3856 0.1513503292245425 -0.9267961417220038 -0.6119526322851545
3860 1.2927550442581979 1.5628792792271928 -0.19729042917184908
3855 1.416340159726595 0.12476434807397384 0.37874712545564454
262 0.6337271841714441 1.745895593771988 0.9166866098779962
3863 1.4157449672436915 -1.3337022645955954 0.3371913874612789
3864 -0.6878090065319153 1.2696777063994384 1.30337425177513
3859 0.610487113561271 2.858355635809975 -0.06577289295937701
3868 1.6490456072432595 0.24353650419979064 -2.218114208325744
3872 -2.035143063562089 1.4505858888091632 0.31864760694545724
3867 -0.8613355788755415 -0.18120224303393412 -1.1313248628570922
274 1.4235775785386104 -1.2531861690736368 1.276217640106998
3876 -0.4935084654653662 2.2241576220341037 -1.264710034786807
3871 -0.07870968839675717 0.7425458857867229 -0.4174510221469667
3875 -0.24838053412849137 -1.7239542912759034 -0.32204097875422605
3844 0.9672432391131626 -0.24056400821913984 -0.2344485859352336
278 -0.8715597036683268 -0.44085194174085035 0.03940373723613844
3879 -0.36013447902233753 0.8195513095603761 -1.9366051291865303
3880 1.1911182343397586 0.057911395890543484 0.32977206855433383
3888 -0.9523724612136463 -0.6926313322834324 0.9994884823955114
3892 1.0672181453719665 -1.2273124824840305 -0.9932040341751351
297 -0.6283109270209173 -2.1088140303818212 -0.16015735821727622
294 -1.0615882710906788 -0.3263243596656569 -0.1449233282885246
3896 -0.41057105698195034 2.2410488960206827 0.8751112513457154
3900 -1.7874894779544326 -0.5891623654910345 -0.6016958374566045
302 -1.4725468598875526 -0.2585119374988133 0.12017826972729134
298 0.024746929307521655 0.972391910890383 1.1418198735750607
3904 -0.1084452107581911 -0.9738455962548751 -0.9344904646126836
306 -0.9841126347702513 -1.256753252690571 -0.5076466923241689
309 0.5734851419914598 -1.148682284589541 0.07662348589711823
305 0.38744002513819914 0.6137711675804398 1.0406217054575395
3908 -2.9840073090575117 1.0808432916106794 0.3568958892572141
3912 -0.17389052670930616 0.6340126698848458 -0.6860916010597592
310 -1.1539072882185477 0.05926241124509637 0.3408250385428949
3916 0.9259453832027712 0.217036096712182 1.1536310562788994
3884 -0.30832026575673904 0.006062437708169751 1.1568374001353061
3920 1.0005839291740162 -0.058673087986746475 0.6145594572499162
325 0.7633015457837716 0.7689578947326824 0.49586597724135695
3883 0.3241186454640648 0.2538306054386764 -0.3402138829903487
3928 0.9237640594519939 -0.8165333289388054 1.6243677719854863
3887 -0.019867195596175526 -0.6667342252362111 0.4386233971474447
3891 1.3965030294399483 -0.21835096663793602 -0.04663938013609172
3932 -0.7945909194023534 -1.0976631385034235 -1.223196830361449
3936 -0.7570349844862599 -0.232586019943774 1.0725751629038167
3895 -0.5318963479833749 1.5795903609872122 0.07008137853977722
3940 0.9581724415540678 1.109226550883269 0.4014987235082653
3899 0.5821344400701842 -1.1498377252581056 -1.202917591716674
3903 0.7457714000977164 -1.3988742423915617 0.876083067386908
3944 0.24961513739702035 -0.4389645098911193 -1.0010854766003798
345 1.2510756273000982 0.3419076559334711 0.23773358715005574
3907 1.18088969018659 0.6609954387032274 0.5369560449247337
3948 -1.3648805283350125 -0.26330248416167584 0.22842200255982664
3952 1.7881173370346035 -0.6696213585150789 0.6873916647463528
353 -1.7195170844194438 2.3925421799410325 -0.5949039373034751
3911 0.0066012592128174815 0.37888520394237213 -0.09983669579537292
3956 -0.334851545334249 -0.3084843965977302 1.8491896525383669
3915 -0.31032476371607315 -0.1809936508922866 0.21648753845251453
321 0.3062620737162995 1.492093526512447 0.37301956965135274
357 0.21613915776029885 0.5480447614665251 0.7500124949964122
358 1.1586128767853234 0.274877477582183 -1.2418842223470328
3924 0.6694476130797674 0.753785440226201 -0.4033851475874697
3919 1.0942557404587807 -1.6910602836619724 -0.09361400257538302
3960 -0.11097893509703922 0.3579779624389268 0.21007164991747052
322 2.871579186206408 2.595487138345538 0.03537350360061129
3923 0.8775430945804149 0.039493407402253544 -1.2250293735032085
3927 -0.18343484303947835 0.9671738596524806 -0.48771438221455066
3931 0.21371801425297213 -0.10347284384127327 1.1929450486682844
3935 0.3097250687762927 1.3035695130263 -1.0490664337405018
381 -0.9721772539800234 -0.4230843134670958 0.40499496878489294
338 -0.18693651835700945 1.1111259331204535 -1.964276479838076
3939 -0.297925214228865 0.4642672785552081 -0.3068430877878933
3943 -1.050760125568972 -0.09250149635324292 1.0762825255702735
346 0.7652053264549822 1.1521584688311066 -0.6961808950075554
389 -1.0282146751942915 0.7860231134377231 1.5706027603395725
385 0.0779366077157108 1.9895614239838901 -1.600118689440554
3947 0.66891321917236 0.337819618976012 1.1499496206367124
393 -0.4678170293619392 -0.508197316442968 0.8632273522452019
3951 0.37428067826356903 -1.1488764446631314 -0.29867512821948994
3955 0.002809327119095417 -1.0124237602764172 0.761570404503695
3959 0.6859495910192097 0.207415819171238 -0.7106653327499591
3968 -1.1052977910695312 -0.21087468115910288 1.4299445923674576
3963 0.456389456107568 -0.5479288437073183 -0.2520988907476531
3964 0.4678641553679499 0.55951433704633 -1.0882403909327802
3967 0.633034398800814 0.8647814215901216 -0.5371580020188593
370 0.022833138323768584 0.1716234640467276 -0.562706015245766
366 0.4590096168240062 -0.47152228812584535 0.0415036049594835
9 -1.8060815358674742 -1.6700358169471092 1.1078676357196318
3972 0.02199384311309906 0.6924643436577433 0.07164099661544827
3971 1.3668075183177213 -0.2520139850074803 -3.217051252983142
3975 -0.43518506268047785 -0.6935728893366444 1.457509312334771
3976 -0.252168684938493 0.38484802694038844 0.9194212145349111
3980 -1.3946021432300146 0.5223142778294529 -1.3117644364773255
378 1.111875459397307 1.1160736911026585 0.6975757148458259
382 -1.3295374329706608 -0.8400933169622693 0.6997861627864619
3979 -0.3065779507189901 1.3597695798251899 1.3342165653965612
3983 2.278800069822239 -0.6665465671995994 1.0721541587929988
3984 -0.7128781578495726 -0.6041128204795364 -0.9981119607609065
25 0.32452367620160555 1.5646092798214808 -0.8324736264192761
386 -0.4387710618491072 0.6377873425946953 0.6219807328840169
3988 0.4744061019276394 0.39450871464466436 0.4802471784611341
3987 0.6116496933487036 -0.8624189567144853 -1.3914428522544333
3992 0.8794512569159733 -0.4823850037431835 1.515330203911521
394 -0.6539016877982736 -0.09010639740515362 -0.958262867832378
3991 1.5622852673334489 0.6128533163800464 -0.9584740504011053
3996 -1.2332537548644784 -0.7051377703552719 0.281011894654842
3995 -0.513149417040709 1.9905920000892359 0.18663985823435444
3999 0.2816146190756778 -0.5419910303439529 -0.7826583121557129
4000 -0.13187820538347264 -0.43574453507596517 0.715083784726707
