LAMMPS data file via write_data, version 7 Feb 2024, timestep = 1200000, units = lj

4000 atoms
1 atom types

-0.886115258636595 11.448887543744169 xlo xhi
-1.5347966493214447 19.830054915908008 ylo yhi
-1.4470201579695203 18.69595506978505 zlo zhi

Masses

1 1

Pair Coeffs # lj/cut

1 1 1

Atoms # atomic

929 1 0.636749508569733 -0.6222799616935433 17.779574029951476 0 0 0
3988 1 0.3168153524612003 -0.5001545347607623 -1.3080560950009832 2 1 1
1322 1 1.0177427146188494 0.32699156667637763 -1.0922000367892262 0 0 0
1720 1 1.861401038018796 0.31220937349499756 -0.6028966780355137 0 0 1
943 1 0.8215254062368078 -0.5808488890948221 -0.07451781495532628 0 1 0
808 1 4.643937292279503 19.822237329316938 18.261937985190492 -2 0 0
634 1 3.5890294438805963 -0.29034052688107703 18.616337063644508 0 0 -1
2492 1 4.86100074010494 -0.2838550153714079 17.927598432237588 -1 0 -1
2693 1 4.888618404440524 19.646084204369373 0.2745057192999223 -2 -1 0
870 1 7.390646641015078 19.786445556915268 -0.6620366549241817 1 0 0
2274 1 5.326474047814549 0.8881556502155514 17.143067327399827 0 1 -1
1616 1 6.192017704912631 -0.9011331697646028 -0.8923894595743205 0 0 0
883 1 6.8771736317084065 19.100981091976514 0.0525098774380095 -1 -1 0
3305 1 6.6828574313510725 18.912871003882977 17.825639659804274 2 -1 0
261 1 8.082091741841177 -0.9461038523752154 1.1047143032396929 0 -1 0
2253 1 10.345129039012738 19.29151402581371 17.857950262708783 -1 -1 -1
3499 1 10.852576965124141 19.603921986814164 -1.3888959335438464 1 -1 1
1871 1 10.108975910617023 -0.7829054930018446 -1.1856832567651854 -1 1 1
3967 1 8.553599149002789 -1.3850479179736852 -1.291825418038967 0 1 1
1855 1 0.20175477674501163 1.6932506325217291 0.49139313827817177 0 1 0
1172 1 0.14893713191340563 0.8749452957409556 -0.8124455724373623 0 1 0
3930 1 1.3261225315538776 1.314645036186941 -0.9974497269973062 -1 1 1
1097 1 1.0473018095642561 -0.20736332753526687 16.756680158766066 -1 1 0
3714 1 3.173570489176602 0.9251638895654897 0.6577705967819178 3 1 0
3842 1 2.683262185788609 0.4510495388048561 -1.2751818580449816 0 0 2
602 1 4.604809215655073 0.23681285561479992 -0.8227449516251774 -2 1 1
1156 1 3.615107968068891 0.7183602007628718 -0.3408387957841488 1 1 0
817 1 4.161084110571773 0.4743738541540128 17.921914137124446 0 0 -1
1857 1 6.187347814357097 2.5604373523504274 16.831833668684617 1 1 0
1942 1 6.667184100430204 0.9031095812826329 18.30787832044407 0 0 -1
2362 1 6.62340121030221 1.8049752157227341 -1.128592327045431 -1 2 0
3789 1 7.4615699973101375 1.5644762435372037 18.522772965569246 1 0 0
978 1 8.567178103011965 0.7803126269813028 -0.41551476406056387 0 0 0
271 1 8.508783349157302 1.430223705861378 18.529640222018983 2 1 -1
61 1 9.338186715567613 -0.21126418434224736 -0.6247919313292836 -2 1 0
3868 1 10.78330529624024 1.1931071751034414 -0.7247116424045237 -1 1 1
2889 1 9.329851747359392 2.974955197260396 18.510017273554446 -1 0 0
15 1 11.433872829988807 0.08750829546849448 -0.384647123564579 0 0 -1
2762 1 -0.6238104312922983 1.0034964670112827 -0.037875815159349235 1 0 1
2105 1 1.3061362363124527 2.6286116687007235 -0.7008642674371794 1 1 0
2039 1 0.6224310712125942 1.8663006430416385 -0.3793051866896855 1 0 0
2610 1 -0.7630506109513203 2.767580308258892 -1.3255653660802076 0 1 1
3486 1 1.473099350023828 3.8931984191356275 -0.1307760514276064 1 1 1
2158 1 1.703850597647269 2.056496199598325 18.485756888896105 2 1 0
73 1 1.4839960114132058 1.936303490969673 0.2944265254878229 0 0 0
2384 1 2.186381806673859 1.7937413496693702 -0.42560028225745583 0 1 0
3341 1 4.217003296103411 1.6413347180252442 -0.14479491345224083 1 0 0
2408 1 2.6265360613535673 3.941910105059499 -0.2621427201243325 0 0 1
2860 1 3.5497286535249764 3.105435427496304 18.35649353306991 0 -1 -1
1478 1 4.755987154466641 1.3398271683055367 -1.2415447932634098 2 1 0
1048 1 6.025512978215088 1.737055645445373 -0.0702831214996682 0 1 1
2531 1 6.164055402442826 1.6551046075397466 17.55635887992363 -1 0 -1
2804 1 5.5848156835152345 2.3618135549266754 18.679864276760075 -1 0 0
1791 1 6.169392577365874 2.9145576988557487 17.855224585683644 2 0 0
3169 1 8.73880136435536 2.431374905758662 0.05060972471043779 -1 0 0
1395 1 7.497576566482644 0.7761073570231143 -0.6561574388454426 0 0 0
1253 1 6.33761578570769 3.0761741973920396 -1.0201497936994053 -1 0 0
570 1 8.847372684655028 1.5384218985137417 0.6317884877869475 -2 0 0
2006 1 9.097064086386215 2.0310812511206624 -0.9811972868850045 -1 -1 0
200 1 9.516457112232544 0.4353897302656293 0.16147706268112527 0 1 0
1212 1 10.89809588811194 2.496360396119514 0.6034581376446195 0 0 0
3049 1 9.933633441452388 1.80341760713076 0.21273055127828866 -2 0 0
3472 1 1.1509889941953766 4.396024627358138 -1.3858408411568335 0 0 2
2262 1 2.6542427859073854 2.006516293559647 0.48416824074163034 1 1 2
1237 1 0.14966223044131244 4.50055163962203 -0.5767045792420279 0 -1 1
3713 1 3.3541110419260676 4.052180614195546 -1.3311881361153495 0 0 2
264 1 3.929970288692778 2.6459242638892038 0.5021032479620129 0 0 1
566 1 5.54675330059189 3.7912194575540656 -0.3321625804161392 0 1 1
2786 1 3.622328376241862 0.8328384344082749 -1.4101605991825121 0 1 2
3230 1 6.782359300816123 2.274283768204829 0.42341018830552546 -1 -1 0
692 1 7.553964705526818 4.968310963184561 0.8400144016741082 -1 1 -1
1796 1 10.058703424962953 1.810053162187812 -1.1691348903638614 1 1 0
3319 1 8.673644946337827 3.6124693864658646 0.06990142942533573 -1 1 1
1686 1 10.523520782591033 2.752817637580309 -1.3906140362462647 -1 0 0
109 1 9.032570892742319 5.0079881269209 -0.45384834705091914 0 0 1
1184 1 10.749090324741024 3.015686962915736 -0.43199422648852703 1 1 0
2113 1 11.210680468684165 4.410649088261626 -0.22932078914775333 -2 1 0
2450 1 -0.62660362378679 3.5150103749784556 -0.3455787491921103 0 -1 1
3084 1 -0.34337050800411606 1.7149114077494656 -1.03705564024788 1 1 1
1995 1 0.49247424634150727 3.4081963679034937 -0.02477092407848036 1 2 0
3493 1 2.593580474474259 4.92472613030406 0.5828706735263842 1 0 1
2564 1 -0.2858382532999253 5.453697858168264 -0.8673405305294224 1 1 1
3996 1 1.1945432876247382 5.473651391699352 2.5019495161741707 -1 0 1
3733 1 3.85940059150985 3.789413812879922 -0.031656182936997235 -2 0 1
1854 1 3.3694748278947655 4.851021650579359 -0.5452321944345594 1 1 0
3213 1 4.251902467276478 3.8880695847298137 1.028852379041402 0 1 0
2898 1 5.251350485959216 3.43479687817229 -1.379356065362992 1 0 2
2012 1 4.0144392444305215 2.060605178445324 -1.208660028146883 0 0 1
2966 1 6.175187518451376 6.782992696908341 -1.040921928781294 0 0 1
3457 1 6.1575459899193685 6.093530055460969 -0.25046793711955573 1 0 1
2360 1 6.09460573541773 5.515805211889428 1.750124245235464 0 1 0
1247 1 6.370190598960591 5.084249934618289 0.8176661424497138 1 0 -1
3278 1 8.660768079938999 4.773115819517242 0.5552978826628872 1 0 2
3369 1 10.11163695971876 5.106140645962136 -0.0931068899864218 1 0 0
1870 1 10.514306340321918 3.9070569073211576 -0.9470346412418167 1 0 1
190 1 9.884704021288444 6.5660403440655415 -0.7582273962671546 0 0 -1
1702 1 0.39352148840100165 2.8848251269461453 17.858118789913874 1 0 -1
3602 1 0.4379954088085283 5.071044557015944 18.426838815370097 -2 0 0
1447 1 0.9219932505585444 4.50991219269875 0.555281924118209 0 0 1
2726 1 0.357575669005725 7.391715529355526 -1.2290277588756544 -1 1 1
432 1 1.3712027758959704 5.43952871225828 0.7627493542350567 2 0 -1
3155 1 0.3020578802935585 5.830552109851523 -0.02868335282128398 1 0 0
841 1 2.6291725305299445 6.993140618304702 0.41624004637075607 0 0 1
3029 1 3.543950922184165 5.917509333560156 18.261123796236625 1 0 0
3623 1 4.3254028173630035 4.69449160749876 -1.301603728665536 1 -1 0
2096 1 4.652861930299787 5.655735735137514 18.616072371355564 -1 0 -1
1460 1 5.764182103546513 6.752260799894286 17.906304476635192 0 0 0
1329 1 7.0964963564029935 6.850052204003331 18.37114627041737 0 0 -2
2213 1 6.8347783417078425 6.001531613707263 -1.137855326839109 -2 0 1
627 1 7.3006959261371644 6.790518837135094 -0.590451873576768 0 0 0
2521 1 6.462541877069991 5.100752579537765 -0.40832505547707654 1 0 1
770 1 8.925217866291378 5.972067628298198 -0.7213233223121669 0 1 0
1572 1 8.420036902236035 8.498185126348492 18.69592821787476 -1 1 0
3246 1 9.929027494272592 7.315682250376039 0.9536309253285626 -1 0 1
691 1 10.81362444324171 6.728186044204854 -0.3195700209028727 -1 1 1
2605 1 0.6240187358915916 8.324642395549025 -0.11316006975079551 0 0 0
1574 1 -0.45380992039652823 6.8388988447805 -0.23670341911021553 -2 1 0
2906 1 11.122829380011204 9.349740495149588 0.17934871895238413 -1 1 0
324 1 1.3510967283514903 7.631571634167329 17.558515034824907 1 1 -1
3359 1 2.927625815289418 5.738368348535555 -0.8376140433075785 1 0 2
295 1 2.989380243315628 6.768766071595914 -0.6397688168132528 0 0 0
3853 1 4.141294128608622 6.2417321609473 -0.9093950208547437 -2 -1 1
479 1 2.1015029063466026 8.428643587033342 -1.2756622876060824 -2 0 0
3206 1 3.323343696936255 5.57383436576583 0.1504787156440468 -1 0 0
2176 1 4.790947615462944 7.523946718368553 0.8931969532524029 -1 0 1
1167 1 6.20889524313517 7.540181362680071 -0.3334705407806473 1 0 1
1554 1 6.442483189160377 8.315655440808023 -1.1319954863168267 0 0 0
2967 1 6.548867169920076 7.8233440235454665 17.957614701878114 -1 0 0
1776 1 7.091981543658068 9.131456281399862 18.155895217379133 -1 -1 -1
1628 1 7.392148205025363 8.288978161620427 -1.4314400543253187 -1 -1 1
1999 1 8.892436014930652 7.358824443406691 18.3617355888234 -1 1 -1
3705 1 9.983814312818547 7.249755169516067 18.43396029750778 0 0 0
2156 1 10.855375092262882 7.6463885104820335 -1.3466094310270362 1 0 1
2748 1 -0.851329121281702 7.709256192942215 -0.4621507358639101 0 0 0
151 1 9.117756674576553 7.264903313734692 -0.6097871180224279 -1 0 1
906 1 0.29499977471641525 7.7318219217490824 0.6491256508313312 2 -1 0
603 1 -0.6206265297664819 8.400201046033207 0.422212015973527 -1 0 1
2951 1 -0.3266119263323971 9.247871689569822 18.153333204888362 1 0 -1
842 1 1.7131178144421524 7.7347999673722345 0.8024588475350751 0 0 0
3415 1 2.515903914456703 10.65289379359342 0.6853173852537808 0 0 2
2162 1 1.9231708019012643 9.880102652138016 -1.013012741303823 0 0 1
2672 1 3.550996166076162 8.965414369527199 0.15621538802476986 1 -1 2
598 1 5.973894449558016 7.420071868766064 1.022630589682136 -2 0 0
3781 1 3.11666957306268 8.151472594421344 -0.819130948866947 0 0 1
3962 1 3.923078339679143 7.348970702628671 -0.7524825667044467 -1 1 0
1899 1 4.217827665283388 8.45817532979275 -0.4662405026745593 -1 0 1
3171 1 5.80353800235858 8.952519352028382 -0.48067723273485397 0 0 1
2215 1 7.253933243839477 8.21009976857543 -0.2238293588697824 2 0 1
3907 1 5.7804588031384485 8.229578658434548 0.5122553896080384 -1 0 1
1729 1 8.78800386835594 8.860894033389572 17.03144882309799 0 0 0
2613 1 8.336982355315081 9.559495449189175 18.418866105182346 1 0 0
1263 1 8.885049749469742 10.57260743298005 17.343096161324098 0 0 0
2735 1 9.893255903427882 9.45902541052795 18.314487713013335 0 0 -1
2706 1 9.045767975970362 9.433337115315686 -0.928621782319372 -3 1 1
1931 1 8.995630390253584 11.79193859840432 0.9067609435961033 -1 0 0
3334 1 -0.7469218347667613 8.457800352798412 -1.2070220186402636 1 0 0
607 1 11.285386510261468 9.602118978939718 -1.1233501632196394 -1 0 1
3520 1 0.40766582867653356 11.183603904116733 0.9095060345421855 2 0 1
1875 1 0.01568264786202489 10.929889080446758 -1.0329624774519715 -2 0 1
3997 1 1.4179239056102997 11.920519407121285 -0.8605611384541837 -2 0 0
2963 1 1.0700848513608603 10.42193619497449 18.660649097798547 -1 0 1
58 1 2.8055302910577193 11.542922743184572 -1.3304144196304386 0 0 0
1891 1 4.8233294861181415 11.790784018516163 0.7619737736019778 -2 0 1
3434 1 5.58417495151328 9.238409401442974 17.133224957437122 -1 1 0
450 1 2.677957272425798 9.006269253885861 -0.5988635337336605 1 0 1
3101 1 7.23211689691753 10.470216099463931 18.548475101936184 -1 0 1
3420 1 6.418896361089242 9.703896841612393 -1.0484072791487555 -2 0 2
1782 1 6.6186316659700495 12.28285887650761 0.04346980051879057 0 0 1
2167 1 9.774910889520509 10.352524670929103 17.88935726439655 0 0 0
2205 1 -0.6601009027472255 10.605528706415724 -0.18758156823044136 0 -1 0
1082 1 11.286764399278265 12.741826856385442 -1.0877562127668454 -2 0 1
485 1 1.6028968004461657 12.821072888071015 0.0594178570163959 1 0 1
878 1 -0.8702271766785783 11.908656934460447 -0.45762711090532004 -1 -1 0
162 1 0.9291487759235815 11.395387121706506 1.8015997312321366 1 0 0
1443 1 1.4782812996501224 11.90837768372755 0.799163863117172 0 0 1
352 1 2.7346387866090174 13.298373141911643 -0.3811014040308289 -1 0 1
1017 1 3.790618026461286 13.014523326125492 -0.7974725168982466 0 0 0
3435 1 3.7914114743629233 11.924057151952162 -0.8539976341369749 0 0 1
1967 1 3.3102787131910247 12.407584204093324 -0.058227652054677614 0 1 1
1358 1 3.22380207386305 11.19553010643428 -0.07755201157910552 2 -1 0
2857 1 5.537688750583204 11.281560443851797 -0.9520241319569767 0 -1 1
3800 1 4.064920871048629 9.600615203439817 -0.4857932211021174 0 0 0
26 1 6.219048605841844 13.321227928663031 0.2749971078364717 0 -1 -1
2802 1 6.862172935583532 12.239906087127656 17.93957632043056 -1 -1 -1
2827 1 7.794665187767951 13.334080513282276 16.83585355355173 -2 0 0
3144 1 8.982814886465135 11.552932019797662 16.815564787192102 1 2 0
1413 1 7.013575514025797 12.529781836792228 -1.227007822762785 -2 0 0
2560 1 10.306082752852191 12.176504440442033 -0.6011953731069811 -1 0 1
1558 1 9.958238839126876 13.052178306739384 16.479130355889176 1 0 -1
731 1 9.139451995438305 12.409772243359924 17.79275153935061 0 0 -1
487 1 10.729341676607087 11.163817062307363 -0.4789866516981821 0 0 0
1307 1 9.31191979447612 10.943040470999243 -0.09534193689637593 1 -1 2
903 1 -0.07753554046421385 13.090872231484957 18.685039238309017 -1 0 -1
3203 1 -0.18855921097271777 12.99534883854328 -0.4659731220486334 3 0 1
3605 1 0.9131686699448665 13.696924286237484 -0.46300441063643794 -1 0 1
2936 1 2.8276760181537517 12.503174727304373 -1.26133203127617 1 -1 2
1834 1 2.3413646351759425 13.622273665047885 2.218562815266597 0 0 1
3973 1 2.5014173778770488 13.425341675501578 18.416980620333987 -1 0 0
1889 1 4.527371943557692 12.62818986794692 1.4266859324309111 1 1 0
3429 1 4.784237552964757 10.779595303096148 18.560575083799094 0 0 -1
971 1 6.421607307791393 14.150610113686486 -1.16321662580796 1 -1 0
2830 1 6.30852097797637 13.119606562437369 18.314195930768044 0 0 0
466 1 7.433216644325963 13.52823551465456 18.57395068355804 0 0 -2
1256 1 8.632471981215167 14.49596180165799 -0.396475155254183 0 -1 0
532 1 11.193002591426458 13.317377332317847 -0.06256939580576315 -1 1 1
2664 1 8.951370015939716 13.101049154637783 -0.7777156043457701 -2 0 -1
1979 1 10.896279048374161 12.28761862801889 0.5028572055253941 -1 0 2
1303 1 11.285449518423695 13.879598830109982 0.9735321471748257 -1 0 -1
2007 1 0.10186724450843965 14.953518755154645 18.36194615345542 0 -1 -1
316 1 1.915578666390752 13.745207746828553 -0.7688563735906121 0 1 1
3857 1 -0.08203746143363366 14.831230180565731 0.8499920922689084 2 -1 0
2667 1 1.5149867675837392 15.415105263280113 0.1463767925786017 -2 0 0
3674 1 2.91648381144529 13.222760558253626 0.7371630113705541 2 -1 1
2568 1 4.20768920406799 14.088307857483604 0.6286421544532597 -1 0 1
3325 1 4.382996693641643 13.84773435136965 1.6201080592901511 0 -1 1
1041 1 2.8364595826128367 15.567145645824505 0.29099175645320763 -1 0 0
590 1 5.6524634518180745 14.339957908601368 -0.1512345084286757 0 0 1
3574 1 4.5756888483276645 15.517579399379157 -0.686108711610453 0 0 1
1274 1 5.693512897625289 15.374130630122808 -0.38226916716547366 1 0 0
480 1 8.582269481545865 14.32085885765151 0.7580704024706475 1 0 -1
1085 1 7.5044000174934915 14.782559839216544 0.5301982769069018 -1 -1 -1
3289 1 6.911297746915615 14.250136058196112 -0.21167194203257989 1 -1 1
262 1 7.810708348610701 15.096215028512097 -0.38303361174725037 -1 -1 1
3127 1 9.312418333246983 12.712493552554609 0.1984291987103477 -1 1 1
278 1 7.798926880994973 15.436059652532878 1.5939830007866465 1 0 1
2398 1 10.176691102418088 14.237126332360805 17.746370918305907 -1 1 0
2949 1 9.645727166864248 14.830820060815961 -0.2963110152066306 0 0 0
2443 1 10.217178540875745 13.13253995452029 0.7136973475075785 -1 -1 2
1010 1 -0.7244495885870681 15.450116057249433 -1.4130349768805912 0 0 0
2978 1 -0.19479128535380763 13.88632264180758 0.22889295698057177 1 0 1
204 1 10.921175859767498 14.468651345264275 -1.0931348397693952 -2 -1 1
3788 1 0.5495931509549754 15.556456006404696 -1.0461507096159897 0 0 1
3275 1 11.177035415663097 16.567547014083615 1.4482259188717266 1 -1 0
2989 1 -0.2137928012857625 16.16009006315425 -0.48399105404721454 0 0 1
2456 1 2.7247096324944846 15.890966898198057 18.609460224679545 1 -2 0
1873 1 2.2653695297245116 14.863709296671294 -0.4002235568778374 2 0 0
437 1 5.254082864104252 17.564802908107154 -1.3610292795768282 1 -1 -1
3881 1 3.7615351962189036 16.194624133664718 -0.35988476665286817 -1 -1 0
1410 1 5.741922785110452 18.44273873951967 -0.9667415162108999 -1 0 0
2300 1 7.223004365391889 17.284143961676584 -0.8423243676454891 0 0 0
1057 1 6.839205575539442 15.241446986117408 -0.6787682596444721 0 -1 -1
1432 1 6.857629717594416 15.907480380303378 1.3371456086714022 1 -1 0
33 1 7.469689310285155 16.84461161218733 1.3584318435810974 1 -1 0
2522 1 7.241725848348041 15.737185347829856 0.26687247296100813 -1 0 1
2222 1 8.524374275974575 15.852905467871446 -0.4548809437851835 1 0 1
3859 1 10.745265814660414 15.502325926435747 -0.5491947997201502 0 0 2
2794 1 9.488672970485608 15.770914460528028 -0.9822036382359018 -1 1 1
1684 1 1.6840939633601564 15.79583019478852 -0.9705525940930666 -1 -1 1
3617 1 1.3853278562677818 16.01006032528553 18.24754547335351 2 0 -1
413 1 1.1377633441886252 17.5907926240929 -0.7778838678631511 -1 -1 0
2902 1 2.2359287995142383 18.182895638469837 -1.1972101713904508 -1 -1 0
2662 1 3.714339003403615 17.135129892653318 -1.3415196894703079 -1 0 1
3619 1 4.549951243509982 17.659234238730612 18.10777273340325 0 -1 0
1793 1 4.362791660448951 17.853268023689424 -0.9018461480118616 0 -1 0
3474 1 4.915595346990771 16.854963869146722 -0.35996010733247785 1 0 0
3018 1 3.9779015809779414 16.505022472821203 17.01090438879617 0 0 0
936 1 6.074175587639061 18.049633151324947 0.5012922769243129 -2 0 0
1956 1 5.113553142952276 19.71321066648826 -0.9956530090857033 0 0 0
3940 1 6.250109942930345 17.590032092337935 -0.5316832789271689 1 0 1
2186 1 8.505754934249543 17.981494780935243 -0.12339751817675504 0 -1 0
350 1 9.699734060378907 17.72606071904115 -1.1152089913370207 1 1 1
1374 1 8.66947086723278 17.53101507721521 -1.1425952286238024 -1 0 0
1687 1 9.126434836783453 16.87865859854589 -0.5265485087070535 0 -1 1
3351 1 9.730713332994885 17.46083366895555 17.921019624392763 -1 0 0
535 1 11.009664195620696 18.580774593731483 17.879296557145047 -1 0 -1
2137 1 0.4702580317081624 17.537051903309333 0.07825562644183726 0 -1 2
296 1 0.44127627445529427 17.59371245903661 18.595066092851326 2 -1 -1
1075 1 -0.48268924306700856 19.81113898307487 0.28183549526732055 2 -1 0
3279 1 2.0651475629848326 -1.5344432765365692 -0.5778872416824051 1 1 0
2107 1 1.5444892859784125 -1.1449699926449917 18.04603218155411 1 0 -2
788 1 1.5241889346138633 18.934383514990152 -0.4590780034079154 0 0 0
2433 1 3.0383349686199774 -1.4386970421787393 -0.11058644294663722 1 0 1
1185 1 2.759333073516787 18.948322002555187 -0.6761450956809054 -1 0 0
2076 1 4.059677522232222 19.632349275067853 -0.9701337462169008 1 0 0
2537 1 4.467844971768462 -0.7877633714780191 -1.1359765979384067 -1 0 0
3644 1 4.8110242695018135 18.86116165442607 -0.3485534123246643 -1 -1 2
701 1 3.7545334363638974 18.526870852417616 17.95614239774403 0 -1 -1
758 1 7.6010877899474085 19.10249103062676 -1.3913231200119673 1 0 0
2033 1 5.631219577098467 -1.1091843460250335 0.0020200948572093314 0 0 0
3021 1 6.06800940862046 -0.8182834663405142 17.1577228360051 -1 1 0
1434 1 6.746398113387833 -1.3672994385429187 18.19202600833694 2 0 0
2261 1 8.249599456919396 19.6422329987056 17.909803043076323 1 0 -1
3627 1 9.617712737716268 19.01165689154312 17.027268186254695 0 -1 -1
834 1 9.670936245860178 19.658164349450864 18.66251494388439 1 -1 -1
3002 1 10.182868881956296 18.68982938706781 -1.4307958406471784 1 -1 1
2872 1 -0.3612942193551957 17.21989604605472 -0.3414457882148716 1 -1 1
112 1 -0.08590792589098828 18.49618176590949 18.347695966385473 0 0 -1
431 1 9.897609358975876 19.685357831759667 -0.4831572515898068 1 0 1
3943 1 0.551197637414802 18.441516384262236 -0.4074866465396798 -1 0 1
2118 1 0.9639341855179862 0.7557971835866755 -0.12145356357354786 1 0 1
1819 1 -0.23091794446329506 -0.6172196087891366 -0.1475576872541775 1 1 1
745 1 11.35723382907237 -0.9074566808319153 -0.9241539981432293 0 1 0
2736 1 2.2557945822785266 -0.6755177083442059 0.11582651093349483 1 1 2
2627 1 0.806024333031967 -0.0024065591667421504 1.3035176256699463 0 1 1
3580 1 3.1993822707260575 -0.7063679152464615 0.7348660071364597 1 1 0
256 1 2.681797848214914 -0.7121023538553881 -1.0525895770458487 0 0 0
2571 1 2.7715435780638584 0.11866698916198337 0.034584569462090764 0 0 1
827 1 3.397773657481853 18.43692040836514 0.13667967901211608 0 -2 0
1949 1 3.8284643998467986 19.40979945461445 0.32611400102923094 1 0 1
582 1 6.554037370769315 -0.3896617580603299 -0.05068399248775557 -1 0 0
3667 1 5.745307470459722 0.07828608566597284 -0.35249329936641005 1 0 1
2865 1 7.939762874131235 18.955942942480853 -0.21788837328018462 -3 -1 1
2772 1 6.607121732367412 19.544360481540167 1.1075809439149493 -1 0 1
3142 1 8.627934447457358 19.79968347622212 1.9311489905446582 0 0 0
122 1 9.151008020976501 -1.0167286008328782 0.301705953131957 1 0 0
1569 1 11.31929803696616 18.981147734898002 0.6527937175969676 -2 0 0
276 1 11.391279712132745 19.23204103827466 -0.5044558459046452 1 -1 0
1138 1 11.299837589965767 -0.7303637140098781 0.5706444829916073 0 1 0
3761 1 1.964941779400688 0.9851190032052952 0.26321927658646116 -1 0 0
429 1 0.3775988741915657 -0.7765103636147453 0.8584688600156118 0 0 0
3523 1 1.0532405096356434 0.9624353125942458 1.8502716192879665 -1 1 1
2091 1 4.376921101410018 -0.353091840881401 1.5559204622238423 -1 1 0
1802 1 4.137915895087656 0.12940746705341333 0.5555790973648032 1 1 1
441 1 4.335661664362027 1.4087299190131537 0.7709834215945004 0 0 0
3590 1 4.89609476965675 0.6075134285283599 1.3034211888601819 1 1 1
2495 1 3.5618523296679223 -0.4821603132704413 -0.34952160865971593 1 1 1
1722 1 6.608726125094524 0.34356942850779837 -0.752676373334008 -2 1 0
1703 1 5.751816556915315 1.0689361893002824 -0.7771281594743846 -1 0 1
682 1 5.87633208061323 0.18576737335057514 18.527447318023185 -2 1 -1
3202 1 5.600176609617108 19.458546908295816 1.1911254499947752 1 -1 0
3689 1 6.657047050303126 0.8932577758546403 0.22615422212377068 -2 0 0
1458 1 7.72010605169122 -0.2918582832928267 -0.3556697818393575 1 1 0
3038 1 8.556272382280824 -0.13465580944640654 0.3413839818848672 1 0 1
1848 1 8.990089810465927 -0.5376545156404038 1.8403751469070548 -2 0 1
2712 1 10.247586178773037 0.17711962303550255 -0.5746673688228585 -3 0 1
1107 1 -0.36593224652385403 0.9585903572072807 1.136976444729462 4 1 0
3834 1 -0.19084666912090875 2.7155586489840084 0.2758048931542574 1 0 2
3698 1 11.437108336465407 1.7572735028307518 2.134975642287918 0 1 1
2291 1 0.7968244151432913 0.9055972152671199 0.8380030623219499 -1 1 0
778 1 3.3022655150551827 1.9492294683286486 -0.3585150672302675 -1 2 0
1990 1 1.9094478954316885 1.4415399558612378 1.1929732023422845 2 0 1
1382 1 3.389907763886642 1.7514715224743092 1.1797755930526361 -1 0 1
2573 1 3.8217136829235434 0.841727353866073 1.668255103970504 1 0 0
1924 1 5.2411579248599 0.8298439951129817 0.09633015074913831 -2 1 0
1645 1 7.140876951371272 1.6433614707563167 -0.373569451203664 0 0 0
3676 1 4.948135457144131 2.450069437595069 0.8325420821975813 -1 0 1
2326 1 7.818624255649347 3.6769357481679714 0.5728096998249419 -1 1 1
1588 1 7.523541569827335 0.15737201331338624 0.4907129938473269 1 1 -1
1467 1 7.569677304830218 1.244038577695338 0.6609433832802631 0 -1 1
3717 1 8.343316191896546 2.8363328873289255 -0.8301352258580301 0 1 2
3226 1 8.602396575496904 0.49539186706686955 1.1390339938167617 1 -1 1
917 1 9.804188469447332 1.1252802540731381 1.1326263447581981 -2 0 2
3364 1 10.879234172218588 1.3262560557582046 0.8647188550675295 0 1 1
330 1 0.226847883138537 3.7753204190183762 1.2048748070394928 1 0 0
1088 1 11.237227674895857 1.8951555928762271 -0.12761209650501537 -1 0 1
2435 1 0.9569890075212864 3.38899651096672 1.88145456347796 2 0 1
3811 1 -0.8312397469799607 3.7008011904420313 0.7085448899920324 0 0 1
3970 1 2.1869760620275107 2.9421791861118987 -0.2862114133957758 0 0 1
694 1 2.0593583516928597 3.752226983168921 0.7295935147504209 0 0 1
1254 1 2.844512101271757 2.969543835512991 0.6706815189600723 0 1 1
1906 1 1.3225631757405116 2.9767708347038395 0.8361391104873617 1 1 0
2409 1 1.8979436869293806 3.4833398112809153 2.2624476149206347 0 -1 0
3055 1 4.589614999168972 1.8649183901185458 1.7789716845070398 -1 0 0
2823 1 5.490102475773456 4.044367684495881 0.6247185584331514 0 0 0
2840 1 4.8285750107488985 3.1158207082873455 -0.08921212394142519 -1 0 1
2110 1 5.184238732436195 2.231166966154672 -0.42379003219753386 0 0 1
2249 1 6.811780391916836 4.141371793217155 0.8265001794686744 1 0 0
1126 1 6.930891654331502 4.091395854405251 2.7688747357790193 -4 0 0
2336 1 7.824223468811756 2.5039355337431157 1.1474819846710531 0 2 0
1723 1 9.51375710160536 4.176309214714304 -0.47534012048355323 -1 0 1
2518 1 9.529541371272835 3.035838279313568 -0.6821403414116713 -1 -1 1
663 1 10.350156179314556 3.7994285691786462 0.21442762554069184 1 1 0
1601 1 0.4695584947555964 1.7342684825329262 2.4040882761634985 1 0 1
3352 1 11.407322004594848 4.038929603309005 1.6198350913199335 -1 0 0
2957 1 11.42668235658463 5.661361177831445 -0.07655377501032268 -2 0 0
1971 1 0.06662729561256253 4.8644171254829605 1.2740965944541798 0 1 1
3370 1 0.11147840919650565 5.123541401845727 2.771154826978875 -1 1 0
2815 1 -0.3749715715693017 4.530319269866561 0.4102905086168749 1 0 0
1291 1 4.312374976804322 2.991950405541055 -1.044332289499191 1 -1 1
2041 1 3.580625184949521 6.244380274592087 0.9496898459708576 0 0 1
2851 1 2.682711120981739 5.1277003503169 2.6776285867379244 -1 0 0
2372 1 2.095175871345824 6.072805506221901 2.4993688550330058 -1 1 0
288 1 3.689549647041839 6.9107386414160175 0.1537218722436875 -1 0 1
1575 1 4.129813087179183 5.237760680293654 1.1462541884027 0 1 -1
1570 1 6.807442195020531 5.98013925251095 0.9568141775681962 1 1 0
1157 1 5.003186020484496 3.869155339876663 2.0750692718626857 1 0 1
2395 1 7.619596001610992 4.656511033858157 -0.44180275606746733 2 1 1
2850 1 9.09598474942412 6.594372053806843 1.0689811099630808 -3 0 0
1844 1 10.833781868144092 4.77513274735529 0.7522845285884281 0 1 0
1359 1 10.227293039320966 6.255026245595282 0.5748515441138187 1 -1 -1
221 1 -0.3038598530952831 5.754128171892789 0.7246362580916119 1 0 -1
2194 1 11.175607529890705 6.49403433582178 2.048217814500145 0 0 1
1986 1 1.6363408706597182 6.823366914221795 0.5872576209577622 0 0 0
2170 1 1.3428615673151567 7.122694096270312 1.6105083121668433 2 -1 0
3076 1 2.476998000786107 6.089214359270877 0.8969279442450406 -1 1 1
3661 1 2.1091781702707677 4.280620040246607 1.6285604118113821 -1 0 1
1972 1 5.274172592814303 5.159346361732885 -0.14663137813478722 1 0 1
677 1 5.338540694894319 6.767494573556613 0.37311929693663237 1 0 -1
1327 1 7.19232563581493 6.875342686423819 1.697160920454087 0 -1 0
358 1 5.816804668829301 6.474106494983898 1.8807827397904822 0 0 -1
2011 1 7.175363122406571 5.773983040801949 1.9600028083005872 -1 -1 1
3209 1 9.541292873394307 3.8334273609533405 1.2393350990573646 1 0 2
2697 1 8.152820952798082 5.7053525744142695 0.4927415305112235 0 1 0
2138 1 9.328789450169355 5.87508738839507 0.3137402788989012 -2 0 1
1371 1 10.104242848750353 6.491999371416844 1.6377683456230123 0 0 0
1798 1 10.257590308689904 8.523136416859264 -1.0250272451937736 2 0 0
1024 1 -0.7770063883885413 7.504559315462352 2.651830058459776 2 0 0
1620 1 0.03978327953508276 8.723811464733249 1.1686270901489078 1 0 -1
1280 1 1.3904364924819408 7.840536774567926 -0.7486988930985562 1 -1 0
3539 1 11.352718776684515 7.521193900689717 0.574343797887706 -2 0 1
447 1 0.4557400765672439 8.187899655845444 2.96257477814886 1 -1 0
2151 1 0.26284036785579756 7.475714973506603 2.2550772842397504 1 0 0
2839 1 3.6650869014021783 7.888229885722366 0.3347633604902527 0 0 0
2256 1 3.0801627475433406 6.252430136873859 2.0063399958870116 -1 0 0
3086 1 2.5500259945401624 7.043695506420727 1.5121686547217013 0 0 -1
2440 1 3.7421484718520883 7.249601254505858 1.3623724217471538 -1 1 0
1137 1 7.213548709274264 7.175894196872537 0.3563276953749115 1 0 1
1623 1 4.716315493701209 7.327162890459988 2.1765272403875424 -1 -2 0
1381 1 5.127728275615277 4.850260418060905 1.3043582786915668 2 1 -1
3165 1 6.812484379433312 5.858538741401578 3.157364850128751 -1 1 1
2581 1 5.78098423451 7.98499914807671 1.922848726695411 0 0 0
2243 1 8.163439850674555 7.803287944723623 -0.47507881910336625 -1 1 1
3712 1 7.250257922183458 5.9049794375758955 -0.08324520742140651 0 0 2
1639 1 8.28566662894893 6.662366236660855 -0.3966503911537862 1 -1 0
3774 1 9.354263901003808 8.283560569096826 -0.6127490041850084 -1 0 1
1270 1 7.953812812073037 7.448542764904397 -1.3766062843613383 -1 0 0
2911 1 8.903489309873924 8.892018099651084 0.8744758104610733 0 0 1
159 1 8.430463366833223 8.758804661416416 -0.282451634277902 1 -1 0
2632 1 10.299328363886026 8.209304886092077 0.2049217291252523 0 -1 1
1032 1 10.30788678866129 8.216408989992738 1.646129028547723 1 0 0
2351 1 0.8497149131657855 7.999023718612081 1.5609779221482052 0 1 0
698 1 -0.7064902124122331 9.366444358543529 2.488106335711632 0 0 0
2097 1 1.0178521723950873 9.220842053714708 0.8531705668086609 1 0 1
1018 1 2.5640460438276587 8.068310847590423 1.5014041695380658 3 0 1
3421 1 0.8264973515045722 8.877526357597072 2.263827778224316 0 0 0
3308 1 2.5271329727913634 9.382612692964948 0.7119911051468568 0 0 0
1757 1 3.596714128531816 8.413494659462994 1.5957043043556203 -2 0 0
1070 1 6.256331542712825 9.37744383579296 0.8159846183317381 1 0 1
3607 1 4.922445975792016 9.28424482703398 -0.8196896964547077 -2 -1 1
2392 1 6.780791267008345 8.271897586936047 1.022474271381277 -1 0 0
540 1 7.492948815749932 9.20653461378373 -0.9366754750403743 0 0 0
2677 1 7.4348199530917025 8.005884714910144 1.8704943759091113 -1 0 1
2302 1 8.410511918300488 9.969124355871376 -0.056125997229715674 0 -1 0
1981 1 9.580934907192793 10.416772462945715 0.8909145612252147 -1 1 0
3423 1 9.050674383974998 9.49788190595599 17.699250767167563 -1 1 0
1691 1 9.854242068337255 9.747914730908443 -0.2590339489085296 0 -1 0
1624 1 10.180265961230495 9.103472693640805 0.7918492117094753 -1 -1 0
404 1 11.307518909761848 9.194120025642906 1.384122353201311 -2 0 0
2900 1 0.36277516175400826 10.030583662720073 0.4614263956051228 0 -1 1
3914 1 10.864427848332756 11.226938691552354 0.8977345832998473 -1 1 1
2126 1 1.38087029168546 10.785149110437262 0.7867420418012281 1 1 1
62 1 -0.5170889105225606 10.503611681594942 0.9903794719525356 0 0 0
2831 1 2.9292176546378106 9.297491895382077 1.7879618040602763 1 -1 2
153 1 0.4475688303479932 11.387700810412392 -0.26128578249762757 2 0 -1
2250 1 1.7086051698281834 8.705002381885057 -0.1065354100196867 -1 -1 1
852 1 1.9525725402193772 10.8818639558556 -1.2616646181567561 1 0 0
1850 1 5.234311130019276 8.96707622522606 1.0053105097161614 -1 1 1
2990 1 4.300334415444038 10.292550535404722 0.6545751465163594 3 0 0
3673 1 4.696978231905526 10.961987260658887 0.01932580986280641 0 0 1
3880 1 6.493820383710353 10.804859858105576 -0.5236010367504412 0 0 0
2826 1 7.5808492736942625 11.531310773358426 18.40403667530355 0 0 -1
3870 1 4.85472440503655 9.495346440960157 0.18841966059473325 0 0 1
3050 1 9.89458022496309 11.824969912293808 0.25925556495157753 -3 0 0
2357 1 7.456367224904488 10.25092611707698 -0.6383754937517507 -2 1 0
992 1 8.744097040692228 12.064126173854088 -0.6000660503640988 0 0 -1
952 1 10.62184858815185 10.36336515192389 0.24933543017375048 -1 0 0
364 1 10.093672803333739 10.740449793728809 1.9945550492307884 0 1 -1
1884 1 10.424757346756296 10.38753819843733 -1.2021620629628136 -3 1 1
2669 1 -0.061361307622077255 9.643520050730622 1.5930240016250536 1 0 0
3229 1 -0.45599903184467294 11.700536401208328 0.5779387969895411 -1 -1 1
2477 1 2.176582903438179 11.13551943624637 -0.23399211882569526 1 -1 0
2418 1 2.5146724852207423 11.717525152995126 1.4745209612700303 -1 -2 1
1738 1 3.812448105450925 8.919083898920546 -1.374788635709446 0 0 1
1922 1 3.9963752082246566 11.316043842584318 1.2108223642443119 -1 1 0
3414 1 8.524574230301674 10.746180014547091 -0.8013836128446942 -1 0 0
2095 1 8.16486872569114 12.455039135164988 18.416546304205895 -1 -1 -1
208 1 6.401018992601086 11.08389776518026 18.34527203968493 -1 0 -1
2569 1 9.556297092421847 12.415462096261916 -1.272708051733326 0 -1 0
3708 1 -0.740152619499589 11.999998149351216 1.5681615325641882 2 0 1
3052 1 0.5697373916394017 12.252438818717529 0.2770857651031615 -1 0 1
164 1 -0.49318322188768005 12.732764399645147 0.6408830336330684 -3 -1 0
2742 1 1.5732429317727332 12.445340818051807 1.9586758767792247 2 1 1
27 1 1.925972185869485 13.011510351835966 1.2033384071187987 0 -1 -2
398 1 4.070119655759174 13.169451835088097 0.3571430162007614 1 1 -1
3321 1 0.9725904043602547 14.260234550099657 2.10185257905142 2 -1 0
2314 1 4.755812751869884 13.48591995257403 -1.4154904431082904 1 0 0
2358 1 0.5531492212896125 13.17023720763738 2.044230262418877 1 0 0
1581 1 5.471348503918866 10.126436426100502 0.7836562079413851 3 0 0
1970 1 5.566488219616643 12.302689691227013 -0.4309925363336973 -2 0 0
670 1 6.222633977636691 14.226039873340966 1.0586940716488868 1 0 0
3889 1 6.969000642873297 13.239132080808941 -0.42817843599990124 0 0 1
3184 1 7.480870609088093 11.850732351275319 -0.47981751800535644 1 0 0
1201 1 7.637918045851569 12.979195553839347 1.5321048148502854 -3 -2 -1
503 1 8.2944659598057 10.9775064190091 0.3446311796922674 -1 -1 -1
1582 1 8.018907712039761 12.775510144182062 -0.5621707053585892 0 0 -1
498 1 9.353647772447196 14.0909609093107 1.7686441105561297 -1 0 1
2050 1 11.004899346311783 12.971243060725685 1.4674170364872219 -1 -1 1
960 1 10.628323296104785 13.076382043854336 2.933890974484502 1 0 0
495 1 10.029371398665642 13.125127925332551 1.7970714561145136 0 0 0
2846 1 -0.6697748570493662 14.60576567594572 1.5794926933911002 0 -1 0
3663 1 0.8372861988350053 14.461857697171201 0.2616783333736521 0 0 1
2337 1 1.8287180122645617 14.24524154166057 0.2926327321122313 0 1 0
3053 1 0.36704813983898865 13.971559616127655 1.30234643914712 1 0 0
3301 1 0.975023054567302 14.849447867966424 1.1913183467449189 0 -2 1
3709 1 2.7990447233805997 15.562403572812523 1.5070293037508522 1 0 0
1998 1 2.88216277783566 14.215979823179614 0.38795212858489503 2 1 1
105 1 3.0336473177447845 14.520983831470451 2.2628715454509822 -1 0 0
1389 1 3.791071257925336 14.93045771567101 -0.15852098701221173 -3 0 2
557 1 3.7980216625737846 13.922903604812749 2.465069734931201 1 -1 -1
3583 1 7.135873162370258 13.727717079253903 0.8030425409208046 0 0 1
3680 1 7.801005199921601 14.09347662017731 -0.7880180891548811 1 0 1
1317 1 6.460526453654038 15.114479180486756 0.47034203682644526 0 0 0
3475 1 8.317928784257509 13.905134596004423 1.6685462741728063 -1 0 1
130 1 11.157583634201863 13.900594404202238 2.2430031836197344 -2 0 -1
3449 1 10.668288314007768 14.825337583714267 2.6169670733773502 0 -1 1
1145 1 10.377765820979247 14.669870503226628 1.4036383316435153 1 0 0
387 1 10.994813053717257 14.255240872589258 0.08776854883209095 -1 0 0
1829 1 -0.5683719748438665 16.91939069554629 0.6039231189930359 1 -1 1
117 1 1.6614417067278473 15.91504022306824 1.8859107747753474 1 -1 -1
306 1 2.1106078607188974 16.039095154955156 0.8138269552704482 -1 1 0
2153 1 3.2506132759109354 16.313911773458322 0.891007959685381 -1 0 0
3969 1 1.0423107316905915 15.22038715976233 2.4003020821221908 1 0 1
629 1 4.784580922112055 14.892892989500323 0.2039848290173376 -1 0 0
287 1 2.6246738765728628 16.229859984901054 -0.4753542862509582 -1 0 -1
3317 1 4.216563809684625 14.776331916761569 1.5249148961093262 1 -1 0
1637 1 4.966616757874602 15.964922290861919 0.1777097065336284 1 -1 0
3166 1 5.053640001835642 14.494405333125409 1.036534287529777 -1 0 0
2192 1 5.563455661175296 16.06601677955434 -1.1954598118428563 -1 -1 0
2716 1 6.684346882914771 16.31941077147046 -0.984658240595883 0 -1 1
932 1 9.609418720466799 13.907403396057646 0.2284018339393501 -1 -1 0
2174 1 8.353389879490603 16.56110651877391 0.384455202298176 -1 -1 0
1493 1 9.601496221577394 16.046961025214102 0.07370828797372209 -1 1 1
1050 1 8.410731859832675 15.30985048043022 0.6086213599651584 1 -1 1
2244 1 1.2866843465264681 18.25869792508059 0.48461767206477835 -1 0 1
601 1 -0.41770002554894764 17.878252298042078 0.9044863956197218 0 -1 0
3403 1 10.512730846497522 16.894976617611917 0.34620130072336064 0 0 1
1383 1 0.4638279034044739 15.528206578667282 0.24236682564486411 0 -1 0
2774 1 1.6157593393540606 16.848783115696357 -0.11805808981005783 1 1 0
2805 1 1.4326904442839439 16.804151355058025 0.9857388292087266 -1 -1 1
1387 1 3.0576862503868387 18.020276077503524 1.1467808372047998 0 -1 0
732 1 2.595341801085228 17.585306005650942 -0.2504978309132968 1 0 0
1494 1 2.4820287089983717 19.67718824057124 1.0260966193090937 -1 -1 0
1903 1 4.2525105810120705 16.45416820786506 0.6935153920685941 0 1 0
2201 1 6.243114226934534 16.998926527935538 1.2056120472411904 0 -1 0
2287 1 6.140421166103622 17.00259195691315 18.6798532032033 0 0 -1
2939 1 4.963878172736331 18.4574949873464 0.8548412090559125 -1 0 0
3716 1 7.079450794501498 16.73153999333642 0.365235936420802 -1 -1 1
2885 1 7.827560289791013 17.607587436489794 0.6215998638154767 0 0 0
2621 1 7.142603473922033 17.79893739299399 1.5257619796895434 0 0 0
689 1 7.381535393198293 18.587420589585157 0.8386163329491394 0 0 1
307 1 9.833825318889222 17.773479694041328 -0.12609252945662308 0 0 0
1302 1 10.20848336068645 18.745617751163415 1.328480832328169 -1 -1 0
3208 1 10.342720557497795 16.4401248141476 -1.1301389382677047 0 -1 1
3366 1 8.323822981030464 16.397157584854455 1.6822502239446382 0 0 1
95 1 10.220712586292406 15.407174547624665 18.23530950134034 2 0 -1
1328 1 0.6684223959400795 19.421258412524075 0.45504369681687495 2 -1 0
3332 1 0.757927073746637 19.118762763991384 18.487037747470943 -2 0 0
3808 1 1.9930299344073221 17.8520789450195 1.1897803358432841 0 -1 1
2933 1 2.312285632421907 18.77682700363342 0.35112789512319287 1 -1 -1
1751 1 4.0903651794210445 18.72044776948791 1.2836173057676294 0 -1 0
3346 1 4.04327431872274 18.009864785916506 2.164055742025168 -1 -1 0
3390 1 6.140494904084086 16.45956816759643 -0.0014703084070379902 1 -1 0
1621 1 6.2482365732919165 18.565657465771608 1.4132440059010132 -1 -1 0
2365 1 8.05196869593714 19.328996168943632 0.9300436466360704 -1 0 0
85 1 9.374292350721191 18.839627316058582 1.9895352560719348 -2 -1 1
1712 1 8.919565086376652 19.221283544872136 0.17966057195912422 -2 -1 1
325 1 10.775897997454148 18.367873131276063 -0.5208794780271758 0 0 -1
1823 1 10.352514068826636 -0.7360791560574859 0.002875955240582151 0 0 0
1526 1 9.091957322840084 18.646578411321492 -0.7983635754409085 0 0 0
737 1 -0.4862696206126885 18.21458182240078 -0.18001127147883444 0 -1 1
12 1 10.800280591901025 17.302558739117252 -0.8025976936222082 -1 0 -1
2062 1 10.810481802750399 17.917398708530293 0.5476799263146226 0 0 0
990 1 -0.8703852901069448 18.084561471763344 -1.2960115063073354 1 0 0
280 1 10.982551346608675 0.2684931840132283 0.5960740466815628 1 1 0
3512 1 0.14976057785960695 0.32084889995784605 0.3458579589348909 1 0 0
750 1 -0.42900367648165705 -0.08626871978419692 1.0156511265130064 1 1 0
1915 1 11.31939551133773 19.71025753121016 1.4381825860518518 -1 -1 0
63 1 1.0179750471040074 19.121745241477086 1.3348972747877057 -2 -1 -1
1561 1 -0.2610439113795313 19.404231624264874 2.4695341316128867 0 0 0
1715 1 2.39590619244881 19.677915734153174 2.2360682567768864 1 -1 1
2503 1 3.174061987968356 18.988074315295954 1.6066553683726652 0 -1 -1
2322 1 4.774758496446494 -0.7228876438957739 2.6194392260241903 0 1 0
1548 1 3.2435199423812824 -0.49279973001102184 3.4659900897269376 0 1 -1
3063 1 4.093421044177621 19.759040062060762 1.6160263902026646 1 0 1
635 1 5.010389573512703 -0.30060584595335094 0.3033874866622426 0 1 0
2423 1 7.646927069295199 18.594884466979174 1.9470232780032388 1 -1 0
1492 1 6.014822194989605 19.33216546270898 2.167604835312317 -2 0 -1
1384 1 4.945376290463649 19.605800743491685 2.111198708388049 0 -1 0
2069 1 10.32254474772875 19.59426390368653 2.3176059976384336 -1 -2 0
3883 1 10.31461630887177 -0.7472099764914929 2.5898562949364177 0 1 0
53 1 10.319488418543864 0.5830893791370229 3.2179104652360753 0 -1 -1
140 1 7.962422528975784 19.340641110047933 2.6557046136392035 1 0 0
2068 1 -0.07596360419912174 -1.0131914820870151 3.083532579940637 3 1 1
2045 1 11.138254892661903 0.6392286135243377 1.6396706003520443 0 0 0
2034 1 0.6095776397803874 0.3705233699130923 2.791415470936901 -1 0 1
2829 1 0.11013033756689905 0.6306689743515874 2.000114167241237 2 0 1
452 1 2.3729803847537285 0.5351206965550324 1.2325251168558617 0 1 -1
239 1 1.381490650353515 0.09771847294838998 2.11973156282985 0 1 0
2171 1 2.053474389343779 1.0177334249357237 2.433670876561705 -1 1 1
2052 1 2.859981377997305 1.3021220289295847 1.8211433065565963 -1 0 0
3597 1 4.750921596608746 0.3792444993284776 2.244186915500399 -1 2 1
2609 1 5.687815795791294 -0.6461117403262274 1.1574348695071088 0 0 0
3638 1 7.366861531434099 -0.787693112942566 2.7753871548083353 1 1 1
829 1 7.179574274573076 -1.1633193937587878 0.43416817129044594 1 1 -1
1366 1 8.626815652289766 -1.0564998880932261 3.883057467956035 -1 0 -1
3990 1 6.8294326548700335 -0.44403862711062714 1.077830247058769 0 1 0
2867 1 7.797334474160174 -0.13871610821478253 1.5423827973470838 -1 0 0
216 1 10.052188309302148 -1.092999528854625 1.4291907337194005 0 1 0
2073 1 10.054699473724828 0.11386976582013042 1.810290223740096 -1 0 1
1546 1 9.476572231457329 -0.11535932482665023 1.0083735330363965 1 1 0
3821 1 10.955907736827822 2.4915903064815357 2.9235474118305333 -1 1 1
245 1 -0.20626336833440717 -0.32158085617818744 2.095219261723299 1 -1 0
3140 1 -0.5661016706176941 2.2120949909818273 1.1571465150655311 0 0 1
2143 1 10.431051143275278 3.67271046669169 2.610086085929737 -1 0 0
3915 1 2.3071518904057102 1.8772568944124863 2.7726517604363536 1 0 0
1124 1 0.4075039775063136 2.7390592419952213 1.1962262119528435 0 0 0
1837 1 3.217008406578593 0.4371660192963256 2.4533141696340732 0 0 1
3651 1 2.339707248836793 2.5875115338922168 1.6154155485507973 1 0 0
2713 1 6.995531739877051 2.9636056198924363 2.6866211285808266 0 1 1
1164 1 4.1033815611698 1.3588822190724548 2.554531427053263 1 1 0
3368 1 5.5949104649340855 1.2471945336139325 1.0447224443710152 0 0 1
781 1 6.105373647664775 0.30645312881888187 0.8674927951761799 0 0 1
1707 1 7.126377364046451 0.22564357706271077 2.3602038160241605 0 0 0
1968 1 6.9908908492615796 1.3133870484305215 2.695450873153475 -1 1 1
2180 1 6.991198187987714 0.6740491955552792 1.3239810125258469 -1 0 0
1542 1 6.007934908570454 2.838532403992984 3.5750054599543875 -1 1 0
591 1 8.82575247837264 2.3058497571349172 1.5475906538896265 0 0 0
3516 1 10.299424224476153 2.487519339634953 1.874369158010202 -2 1 0
2987 1 8.328485987993588 0.22538585233433817 2.4689027372883205 1 0 0
2891 1 9.781933107240528 3.373543622999014 3.453759781056913 -1 0 0
961 1 11.167618237300681 3.2337395904388426 3.8417840404318087 -2 0 0
2666 1 9.194974076818188 1.3813226715777809 2.2369100207584145 0 0 1
2538 1 10.614443112151582 5.604173069842325 1.8858678814404954 -3 0 1
1567 1 -0.49700064572618874 3.130403522178277 3.095845631085581 -2 1 0
3855 1 10.271600786873483 4.42040893994855 1.8585221736851798 -1 1 1
3654 1 1.0584844360231438 4.4656788231740965 1.6695918293221585 -1 0 0
630 1 2.1476525272471583 4.425580826649192 4.027123558124429 1 0 0
3382 1 1.925820574135693 4.4358996112790265 2.7489202672844213 -2 0 1
988 1 0.7343009738272315 1.738731301064211 1.3324545126402545 -1 0 0
1609 1 4.247322074767585 4.570037515183459 2.123387321313354 -1 0 2
3802 1 3.179462601101707 3.251478369609356 1.8308606691366247 -1 0 1
2480 1 6.152780997623748 2.230619699175045 1.324999750709233 -1 0 1
1537 1 6.3130391319484405 2.0148781139976317 2.731949792382526 3 0 0
1297 1 4.713414099572078 3.319826185476048 3.1768101158963358 1 -1 0
1835 1 7.208401338627766 3.187993954142806 1.6495247719957407 1 1 0
1784 1 6.246895425284441 3.5361865387018376 2.1683658243614383 0 1 0
2380 1 7.126705853040333 1.709867528399696 1.4938401496692362 -2 2 1
3993 1 6.956302371048661 3.148471214071332 3.6775532518062715 1 1 1
877 1 8.196813687704928 1.3615831939077974 2.9018769374880193 1 1 -1
2085 1 9.307213003970352 3.0955509493584907 2.05900668798347 0 0 1
3826 1 -0.8471978813426331 3.0155089741232235 1.7439576099284637 0 -1 1
965 1 10.594170580887075 3.5969196298947717 1.2099200330187547 1 0 0
1204 1 -0.0524982970164406 4.042373476141421 2.2310948422787775 2 0 1
2578 1 9.335685007780201 7.208089826906914 2.0657860794215264 -1 0 1
3389 1 11.249424774232631 4.754318602365971 2.4586386710662556 1 1 0
31 1 11.431620316653044 5.211836299158297 1.4521665355429239 -3 1 0
2056 1 -0.8280034555437433 6.689670844330481 3.526323020520719 1 1 0
3785 1 1.9034343164970888 5.667560620705715 3.7061784769149195 1 0 0
1596 1 4.256864504577018 5.138753449653293 0.12867821709011928 -1 1 0
2604 1 3.5542739135338612 4.530888927566584 0.6567255322943293 -1 0 0
2444 1 3.67609288641418 5.489649392307298 2.3516031968495303 1 -1 1
1000 1 4.511828189703887 2.940883666390791 1.8183646858342026 0 0 1
806 1 3.0889831307131597 5.18665404005319 1.426068251060597 -1 -1 -1
110 1 5.199145262713275 4.429775410790477 2.9525575419695684 2 0 -1
2070 1 5.537353325581112 2.8583889874935133 2.406135714440372 0 -2 0
2178 1 5.983042861389275 4.443085264203498 1.6743933402374456 0 0 2
2371 1 6.341988733123503 5.012519303580188 2.7631945558522126 0 1 1
1465 1 5.984409040086803 2.8862782761941137 0.08678715260288139 1 0 1
223 1 7.709917159533623 5.088254727169275 4.543612187828912 0 0 0
1393 1 9.376381909670581 4.057154587215514 2.3932502024908575 0 1 0
3517 1 6.989350324988616 4.66912883471453 1.7813439527857526 -1 0 0
3521 1 9.655648888345874 8.30002756743369 2.4359850249751798 -1 1 1
1380 1 9.903825166974 2.653360906090059 0.87699251187431 -1 -1 1
1740 1 11.158405084154763 6.274237093858286 0.9204502363943954 1 0 1
3342 1 10.341688422057564 6.280940761877789 2.768692118647172 -1 1 0
1948 1 -0.2324519862512746 6.968921213646409 1.449176939015548 -2 0 1
1354 1 -0.23802264296400255 6.553868815228322 2.6266868590949217 2 0 0
2120 1 0.3201534321295678 5.962431558209215 3.3275381329685176 -1 0 2
128 1 10.786572427833589 7.698595960658592 3.5708130237315707 -1 0 -1
1205 1 -0.11283001930539516 5.856593971854027 1.7969739542684784 -1 0 0
586 1 0.6604851418690294 6.511911499830854 2.16115687269036 1 0 0
1129 1 1.2759064456008589 7.493269363459069 4.094089026341101 0 0 1
2591 1 1.1542732022753035 6.7611601226335925 3.1273851604761322 0 0 0
2587 1 2.5839635874298503 8.155329477641581 0.13870079548009562 -2 1 1
389 1 3.1911770791449685 4.334503333839096 1.9081961148813877 1 1 -1
1060 1 0.693800565783079 6.348048208890117 1.050263177720597 0 0 0
1001 1 3.6491545153736045 6.445299283041282 4.347946776884433 0 0 0
1980 1 4.972397411541048 6.6886538303424405 1.3614591330697348 0 0 1
3770 1 4.8909131657725755 5.546674908946025 2.085781407517173 -2 1 0
1568 1 4.661853177044686 5.368095834193122 3.3286178687706567 -1 2 0
564 1 6.667862534063249 6.589599591582431 2.5022249858913392 0 1 1
1508 1 7.783853728038737 5.568711892040343 3.6951991622689047 1 1 1
3540 1 6.501796926295816 7.589786313983966 2.713098536699376 1 0 2
782 1 8.948632868329696 4.854466602814546 1.755732302450646 -1 0 0
678 1 8.125221859525675 7.3692318920505056 2.0924715454061587 0 -1 0
453 1 9.320805567153322 7.824722866387056 0.34626616480922756 0 0 -1
3584 1 11.043875455849465 7.379102679575023 1.5001345418584813 -2 1 1
832 1 10.726678320273356 9.03712350893879 3.5261943487762464 1 0 0
1689 1 3.8004751738034024 7.353252654821544 3.6965016737778393 -1 0 1
378 1 0.2726431514459169 7.276398359632832 3.32804449462291 1 1 1
152 1 2.2983433565702245 9.03815551153233 3.5274121337224136 2 1 0
2232 1 3.0783412565071275 8.528678165695101 2.504619372261468 3 -1 0
3810 1 4.370488593624125 8.095691529614523 2.8137568924709937 0 0 1
3579 1 3.334224117098879 6.3581878974795565 3.2066018356893107 1 1 1
730 1 5.344553150536683 6.844622736680639 2.8388681202764543 0 0 -1
3266 1 4.204237743839807 6.144127898879839 1.7965216589997146 1 -1 1
571 1 8.156572292576499 6.297146296786304 1.4942286008913501 1 1 0
281 1 7.668249932069585 9.743443557839635 1.8593367800455374 -1 0 1
338 1 10.02746105268089 9.130550795896538 2.084434221421803 0 0 1
1422 1 8.0830316648569 8.837264600309922 1.5365447724672299 0 0 0
3168 1 8.948123818975658 8.02076632008228 1.4749422223395325 0 1 1
1251 1 -0.7284377626013642 8.237154355693276 1.8179693160183796 -1 0 1
3610 1 -0.7117940227530746 7.239857250549354 4.7814419413214715 -1 0 1
3626 1 0.6018237339289054 9.93390372386398 3.5613131674386596 0 -1 0
3433 1 -0.6852893869959719 8.42095821131282 3.1135837237568733 2 1 1
69 1 1.6824317432781748 10.473452980853468 1.835817248687809 1 -1 0
1118 1 1.9204405285994741 9.159965967013491 2.4026289302633774 1 2 1
2945 1 3.8595448798348055 6.992597625355673 2.6898463894596008 0 0 1
226 1 1.5303906739591593 8.134973850826551 2.4887164369355372 -1 0 0
972 1 3.9818089163208867 9.340735575898208 2.4103278037948237 3 1 2
2932 1 3.9839186339052706 9.266102660876998 1.131727617819092 0 -1 1
1375 1 6.949865331518277 9.819811022293065 2.809697573617375 0 0 0
235 1 5.356815769636887 8.112095918200257 3.114871332213397 1 0 0
2028 1 4.702448542990684 8.196295557310064 1.6973007228945618 -1 0 1
2385 1 6.812069793526731 8.760031426737374 2.124894347290971 -1 1 1
1859 1 8.089528218195257 8.050288980108704 0.8298292158154168 0 1 0
297 1 6.563180913751497 9.818227011405956 -0.04497553915013208 0 1 0
3981 1 6.259304995458684 10.690208883981704 3.0021885330983036 0 1 1
1127 1 7.131089895602251 11.291533308972404 1.045348658974612 -1 1 0
3974 1 7.454512486850513 7.336315851094696 3.1340506421181447 0 0 1
1553 1 10.5453607371566 9.971292171170687 1.380571652584258 0 1 0
706 1 7.4500474004806065 9.356696127425778 0.1342790565327161 0 -1 0
3189 1 6.865566010146085 10.427421031863329 1.7863269764652605 1 0 0
1177 1 10.43631097584557 7.289607483644625 2.4208527584607835 0 0 0
3215 1 -0.10208127708970427 10.291960051732405 2.4994757681406825 -2 -1 1
924 1 8.488447319580711 10.348965290258509 1.2025639619031527 -1 0 1
1217 1 2.504706810656514 12.891653526947954 3.0925204640688104 1 0 -1
1807 1 3.338748002800026 10.072506995104037 0.9113792626283677 -1 0 0
2486 1 2.726643509409137 11.809618657598968 3.878579008525384 1 0 -1
189 1 2.8686321621139217 10.076800327718914 -0.27610102861598484 0 0 0
2081 1 5.260094404646054 10.598115538976822 2.6442409417612733 -1 0 1
2883 1 4.976950656609341 9.592764489316789 1.9131652495947495 1 -1 0
3116 1 3.904849589515125 10.464134383384017 1.7961725244484303 0 0 1
1423 1 5.3641495011788125 10.301761226791681 -0.53183477483362 -2 1 -1
1913 1 6.811927414782707 11.349103101049145 2.3743865456373325 1 0 0
2984 1 8.154532791419495 11.73654329660042 1.4997408319121561 1 0 0
800 1 7.569138387895009 10.248265636533088 0.6288603700751314 2 0 1
1950 1 7.973950291290249 11.773020776787707 2.617893163837609 3 0 0
3042 1 8.545607147004558 9.363863968932792 2.862822600162014 -2 -1 1
473 1 11.235002720280217 10.751122039742299 2.1277447197636046 -1 -1 -1
2072 1 9.27064149213574 12.474800654678909 1.8478657901627331 1 0 0
1577 1 -0.511061414577674 11.424090722596242 2.8668075769029917 2 0 0
1709 1 0.471494917968704 12.051812187647567 2.443393089020137 1 -1 -1
3614 1 2.6705842623114364 10.274208561978158 3.1217314659789013 0 -1 0
30 1 2.910334282394312 12.29797487965312 2.298417286648013 0 -1 0
1285 1 4.028744543015395 11.612049643489572 2.2210017410916416 -1 0 0
2996 1 2.8965453475282956 10.540008392348236 1.6847809344502234 2 0 1
2562 1 4.111464776231455 13.27224602672331 3.2434040429952775 0 1 1
3856 1 5.857816422307218 11.224612717973521 0.26027358746729834 0 1 1
1092 1 4.87822324811561 10.653743256200173 1.5593071997436283 0 0 0
3919 1 3.446743177692098 12.327164172726407 1.2224197904441207 0 1 2
293 1 6.739291793511685 12.669837543295888 1.095913153958175 -1 0 -1
2122 1 7.154663574692092 11.645170344799524 3.2426271239321736 -3 1 1
1349 1 10.297734666213405 12.169420345530597 1.4125885632314121 0 0 0
3349 1 8.236435928411385 12.699539352394726 2.4052154635806553 0 -1 1
2203 1 9.03973701954133 11.450545464138708 2.0410269739314266 -2 1 0
2783 1 8.858805587611222 13.253057384353713 1.068362764393926 0 2 1
65 1 9.905042551850599 11.87683869393647 2.6437957842426503 -1 0 0
2685 1 10.860491271022942 12.241823019369226 2.31001738967976 -2 0 1
516 1 9.743364382887934 10.507891107955084 3.1760810413570884 0 0 0
958 1 9.067548241845618 11.330126705203195 3.0820818333527127 1 -1 1
3047 1 -0.4074846560485562 13.350845395112847 1.592955347242162 0 1 0
1536 1 -0.07858159575686974 11.041196988289661 1.772324301951147 0 0 -1
3080 1 -0.0764772312891131 13.907670681269956 2.407245247327688 1 0 2
1556 1 0.30705830254880806 12.204847689653246 1.3225096597848256 1 0 0
2650 1 0.6886987536986522 13.246614063913418 0.772932108741117 -1 0 1
2425 1 2.3730452189480133 12.232241741623701 0.5688319586321033 -1 -1 1
3036 1 1.907027361432808 13.416010479318684 3.944295104333479 2 0 1
482 1 3.3144269759380816 14.919410833018924 3.259230408459228 2 -2 0
1787 1 2.854238052622335 15.084786449179502 4.41708646968626 2 0 0
3078 1 3.3174678306896173 13.844171602637134 1.4638217522149684 0 0 0
2512 1 4.32176514629454 14.351955692479851 3.438613633428961 -1 0 0
1631 1 5.196356236455622 12.977279081338086 0.5773020086813245 1 0 0
3850 1 6.898653652047779 14.33569615265314 1.7875572227375236 0 0 0
2497 1 4.875667219202948 13.59398721656377 2.405836724082239 -1 0 0
2576 1 5.849897421693852 12.241737806914164 0.8076407197614266 -1 0 1
74 1 8.158801868022296 13.598013169567128 0.07386344972484316 0 0 1
2508 1 5.831018633227301 12.947491266199393 1.6042515292686144 1 -1 0
2689 1 7.190545209901263 13.802250352760783 2.6761488979065735 -2 0 1
1296 1 7.680753169879573 11.982931160282421 0.46703628452457857 0 -1 0
998 1 9.270589494237807 13.178226290679905 2.588436419673241 1 -1 0
82 1 0.2556644132471151 13.173680842153749 4.438750689756239 -1 0 0
1345 1 -0.19888181568363061 14.050977812735608 4.06480856634794 2 0 0
2224 1 11.057085006286044 14.194210170034959 4.113144697392188 0 0 -1
2059 1 1.163221861672496 12.786511241677717 3.985656063078146 1 -1 0
3684 1 0.3635368818801361 14.608538644504145 3.4187412453119617 -2 -1 1
3582 1 11.396403096225455 13.283016706960346 3.6922018442500892 -1 1 0
3148 1 0.011058963490660156 15.25923980425801 2.000334093298479 0 0 0
1262 1 2.126932651139168 14.43567304663413 2.9312014897163152 1 0 0
1159 1 1.2035735898579238 13.913399079390626 3.052419083417038 0 1 1
2413 1 1.8817152399269195 14.746296259906918 1.9816786082518059 0 0 1
1963 1 3.860801162112912 15.344129163984425 4.110138346727924 1 0 0
3504 1 4.063973547029458 14.949963745163997 2.5303060057155538 1 0 0
3963 1 3.0994957575231226 15.93682332833333 3.4834552012630517 -1 0 1
1602 1 4.973121613873841 15.100344778689996 2.292696300688213 -1 -2 0
2509 1 5.958624855475289 15.077330259048546 1.5052008620767445 -1 0 1
3706 1 4.983178361783271 15.547759208778396 1.2995836777246526 0 -1 0
314 1 7.7496491926887625 16.088129783715374 2.4484704697355104 0 0 1
1611 1 6.108561625464634 13.206210967546324 2.765528519898882 1 -1 -1
355 1 7.884936187473411 16.45660345427705 3.5463086304841447 0 0 -1
814 1 9.569361957799861 15.131672926694678 2.6402310265766236 -1 0 -1
513 1 8.712599674678163 14.680736124386163 2.7538125895150936 1 0 -1
2809 1 8.77516448627201 15.056392415441598 1.7536105993615188 0 -1 1
180 1 9.724010961508004 15.805382184953674 3.885551358815759 -2 0 -1
1490 1 10.138617558892173 13.91647042248916 2.446095392633808 0 1 0
92 1 9.454912939031315 16.467676178939286 3.042821939989139 -1 0 -1
2061 1 10.264535301001848 16.0649026647924 0.9538123837818868 -2 -1 1
2873 1 11.25501171715009 16.137827383375438 0.28355802777002626 -1 -1 0
56 1 -0.776264185495327 14.348223888321968 3.2231506741170755 1 0 0
2690 1 -0.07130072763494122 16.07358048065798 1.0216502634418858 -1 0 1
1747 1 1.1183607014347912 14.089023244848569 4.414681511210936 0 -1 0
2620 1 3.6574609878074327 17.25209027948391 0.4006711620649439 0 -1 0
3912 1 3.257832879187184 15.650188362790571 2.3697350633338456 -1 1 0
950 1 2.4212085906767578 16.586276189950297 1.9045320418162577 0 0 0
1125 1 4.033769127121788 15.892834084021638 1.7964111210639149 0 -1 0
2674 1 4.5348815414803365 15.943672432157465 2.984664240496169 0 0 0
3519 1 4.024400750191033 15.438715807882256 0.686137458250303 0 1 2
3608 1 5.847676434476613 14.230348414805986 2.1370864323750385 1 -1 1
2533 1 6.823542083429129 15.394633336124295 2.267895274665495 1 -1 0
3728 1 5.768891385031307 15.995805675909756 1.9106270274948822 -1 0 1
1667 1 6.58784610451146 16.937096507275626 2.3720990638661927 0 0 0
3647 1 9.476752494322566 15.05073207393175 0.9328698657831072 1 -1 1
1607 1 5.882474963033915 15.94665086470708 0.8930495729281618 -2 -3 0
3396 1 10.261907413787599 14.866665373556037 3.715692044281684 1 -1 0
962 1 -0.3313362062564693 17.272382974021852 1.8419211322603721 0 -1 0
3763 1 10.051208283418667 18.851977945980117 0.18183295027739943 0 0 0
410 1 0.3100855616088303 18.577245722842008 0.9415657092792897 -2 -1 0
521 1 10.91689568388234 17.054172149671693 2.516974030175864 -1 0 0
3578 1 0.2581742975054877 17.067524750615483 2.700797351480543 0 1 0
1780 1 0.5719165108182183 16.34461099561579 1.7426773775739544 0 -1 -1
2165 1 -0.22752552891456068 18.274090181077725 1.9788146125643435 0 0 0
2383 1 3.8232494684189025 16.96795548456616 1.6015976398176206 1 0 0
1991 1 2.617172767616859 17.143307179648033 0.7917499446390242 0 0 0
1061 1 4.595373022875118 17.668311173603378 1.3729446670637868 0 0 -1
614 1 5.28821534058799 16.794224700053917 2.595825689224122 0 -1 0
2543 1 4.864952738404371 16.543902238202378 1.546139960873 -3 -1 -1
2890 1 5.086924102020365 18.584012788594123 1.9865342218023625 -1 0 1
182 1 8.7832288044038 17.27751577060397 1.3663713851538812 -1 0 0
3409 1 9.058258972298136 16.0227488068441 1.1584575519448221 0 -1 1
3622 1 9.385294360445046 16.998666299245457 0.5142450727144041 -1 0 1
908 1 9.947745539590345 17.540012828171108 2.338457521647606 -1 -1 -1
1051 1 10.950155286368792 15.58411263602907 1.5279314415844185 1 0 1
3318 1 11.145165128079425 18.874366487553623 1.985771559507517 0 -1 1
2711 1 11.15395744893204 17.772256359329923 1.7385216164940194 0 0 0
815 1 0.15197713883056863 -1.5337254230316901 1.5983348538083266 1 -1 -1
810 1 1.4493005255408469 -1.1029851654314582 1.0671559081790605 0 0 -1
60 1 2.1305601088827886 18.662908986289004 1.792242321606683 1 -1 0
3441 1 2.0320055700657855 17.628190381716465 2.409154487684401 -2 0 0
1239 1 4.17619088390827 -0.9283638719490507 0.527488800656053 0 0 2
244 1 5.300683867323235 17.38880074814349 0.5187679528643252 0 0 0
1641 1 3.3583882725066934 -0.9313055609275278 1.7315719587506067 -1 0 1
3755 1 4.979608605638443 17.818422629325717 2.7944481425480756 -1 -1 2
2402 1 5.851626864060613 19.023128911566864 0.3518562600055324 1 -1 1
340 1 8.470723315608438 18.36821650003916 1.4229089355003062 0 -1 1
1646 1 8.34750610279975 18.130718584613504 2.841361069817002 0 -1 0
210 1 7.519138022185432 -1.3960284560555094 1.8774237916107328 0 1 -1
916 1 9.39863231158381 17.94502555665221 0.8868003053721742 0 0 0
121 1 11.03056856469743 -0.6376617334072738 1.5764963772713685 0 0 0
3624 1 10.51670821793319 19.744078392095965 0.5881336848726799 -1 -1 1
3163 1 0.5151739741076784 19.403099433807306 3.186936326490982 -1 0 0
3551 1 2.0138138149389255 -0.5167241346634244 3.5639344609530976 1 0 1
818 1 2.713265070106893 -1.281822399869971 3.114593076439032 0 1 0
1414 1 1.953787157649825 -0.795244306832653 2.5125600157963475 1 0 1
254 1 2.1807418726003327 -0.4142548742067915 1.5515374757183968 0 0 0
1407 1 3.8334244255595147 -0.3215714037607771 2.5835938660587923 -1 1 0
3596 1 6.276961975224418 -1.1030971077482432 1.7971458675456735 0 0 1
3095 1 6.956809532278436 19.392494963396715 2.752884249174656 0 0 2
1653 1 6.276873738908052 -0.0502654944910772 3.9429632560562533 0 0 0
3257 1 8.771661698481317 18.412478818025605 3.788433734069077 -1 0 1
1644 1 7.216992187879651 -1.3069731478689164 3.659200552329878 -2 0 -1
2639 1 9.417077797545893 19.723563386786815 2.949056636015854 2 -1 1
323 1 8.35134624030589 -0.6160108278132795 3.0510320492542053 0 2 -1
1846 1 8.47787472412171 -0.7445098093074561 5.750173543767087 0 0 0
3594 1 11.016955758656444 0.040710807888473255 2.7093258149445436 2 2 0
3791 1 -0.01688446558933454 -0.4317517962326183 4.324177263986477 1 0 2
1651 1 -0.19964524757588975 -0.010224884155940028 3.297983320505641 0 -2 1
1409 1 0.16463369695506636 19.7797078836778 4.166980228125678 -1 0 1
1933 1 1.608090399812316 0.4522322248311246 3.1573171159001436 2 2 0
1673 1 1.536927096156794 -0.0355374954830896 0.6826556429153454 0 0 1
292 1 2.3525168592759753 1.428969734177771 3.938387202613767 2 1 0
1919 1 3.455106210883108 0.39160908574424025 4.078086645624673 1 1 0
2931 1 3.3952187817362667 2.098265281719528 3.141423882873723 -1 1 1
2447 1 5.855964834851417 -0.2185734485193438 2.958757556225054 1 0 0
1557 1 6.2980856107599275 -0.1207334944230054 1.9486606048173103 2 1 0
2741 1 4.378699949938505 1.1210519170291349 3.6359208488047843 1 1 1
2101 1 5.815472242958709 -1.2035296992695437 2.9443683455797665 0 0 0
718 1 6.951169554762206 0.848460201427002 3.567869299692717 2 1 -1
1015 1 5.910029606954406 0.7810758527797157 2.542992493402657 -1 0 0
411 1 7.934676012150028 -0.4806273395283438 4.969484455018879 1 0 0
3867 1 9.310345455075957 1.1711565248814861 4.416798758847422 -2 1 1
3695 1 -0.26737124537436563 0.9770797954905608 3.716324155446678 1 0 1
848 1 11.221634800449747 0.10045213615844006 3.9400767861568173 -1 0 0
3412 1 11.09615671703721 1.4249812859428643 3.2975704485919097 0 0 0
3739 1 0.9015253635439413 -0.3687543378450535 3.590566211262991 0 0 1
1874 1 11.442325946667397 4.385557433447103 3.4486197518219264 1 0 0
1305 1 1.5555384264184053 1.6163399324922567 4.787876158845777 1 -1 0
1229 1 1.4051834302258182 2.167838937374598 1.962283043592958 1 1 1
3652 1 1.0096091962692741 2.674042658650124 2.8165170423300303 0 0 1
3303 1 1.3079637913164501 1.631307155657276 3.0697115647567363 -1 1 0
1268 1 3.632338896708746 3.262884553466268 2.892511074968268 3 0 0
3916 1 2.7773196673254064 1.4896025045456658 4.924053838103818 1 0 1
251 1 3.734065242122189 0.9390036513623694 4.912600136477666 1 1 -1
2396 1 3.582263097000327 2.31396783498274 2.2282972180433096 1 1 -1
844 1 5.165579551300396 1.5178535602410506 2.9227205167132215 0 1 -1
707 1 5.16503887715175 0.8379261699677256 5.1398806924518 2 1 0
3591 1 8.04220807285315 1.1203301580126706 1.8644013202617349 1 1 1
45 1 6.216462561319471 3.071388547312802 4.798961535140455 0 0 -1
3160 1 9.329771972749231 0.00013068631015511478 2.641472478190546 -1 1 0
2956 1 8.155624258981112 0.4714579364492506 3.5727384700179403 -1 0 0
137 1 9.046544279205817 0.8230105882621217 3.439763239692301 1 1 0
1128 1 11.441203799170639 2.074008643477095 3.9504883139092275 1 2 1
1064 1 9.9576295523938 1.5230162917443395 3.5718821587530387 -2 0 0
1589 1 -0.6973193343779331 0.8905157283451262 2.6010879258003445 1 1 -1
70 1 11.08699290153283 5.258423374279058 3.6292191380420977 1 0 -1
3848 1 2.4394443201834686 2.571632938487734 3.7509158987743874 0 1 1
2077 1 1.2400324096952962 4.945287899147605 3.4395053074321753 0 0 0
3152 1 1.8195077217780846 3.4060236090935767 3.3603565253157033 1 1 2
2681 1 4.169514997172762 3.429647813566479 4.156542566174187 -1 0 1
3862 1 2.5857238716767355 2.8538319611531175 2.6319684352637847 1 0 1
1690 1 4.40797413634126 2.4538623461961313 2.7535688193018784 -2 -1 1
1178 1 4.948888536481712 2.3227606211475593 3.9071388431358285 0 0 0
1006 1 4.669022890670011 4.311576488239463 4.142569036495208 -1 1 0
2008 1 7.646455315720367 2.177044191237621 2.3052108519511263 -1 0 1
592 1 8.758941034581275 3.887623421799754 3.312638153389714 1 0 -1
1281 1 8.211042741107846 3.2236889863724523 2.240909606937104 1 0 0
1052 1 9.381787914579208 2.227370350548057 2.8435598712133157 -1 1 0
544 1 1.3617315390170344 3.7583479667355606 5.431020841100025 0 0 -1
2114 1 -0.8686399491100825 5.715866708783538 2.840408443017754 2 0 0
3005 1 0.7466137243550168 3.8107329981862916 2.9335762624726076 0 0 1
2310 1 1.9856724061278874 5.214275394461466 4.849064578815219 -1 1 1
2328 1 4.304753673208849 4.339001055865328 5.339029654343006 -1 1 1
93 1 3.2251304861758756 4.405878343120844 4.393800913824671 -1 -1 0
2225 1 5.574003847728263 4.951822395970962 3.8754133815513656 -1 0 0
163 1 3.4087736472766474 3.77497105515026 5.8602183365826255 0 0 -1
2673 1 4.071432767666136 4.176392322640885 3.2491148986582914 0 0 1
2472 1 2.835977699599893 3.8304874236470843 3.3147060666247503 -2 -1 1
357 1 6.432406449568074 4.998941019721671 4.639060545767938 0 1 -1
2206 1 6.096077302146231 3.8244658224965216 3.3218713882222692 -1 0 0
3268 1 8.465415405932779 3.8657040637001696 1.3790183737013124 0 0 1
825 1 9.263357864989766 6.301573924108677 4.691847506479357 0 -2 0
127 1 8.296180771035372 4.193496022712842 2.510340425555398 -2 0 0
1225 1 10.41074338559308 4.705646683788263 3.1940129816315768 -1 0 1
1190 1 10.637154170560969 6.082215010500738 3.876295701077593 2 0 0
1965 1 9.864378946822947 5.4899888601185 3.699470204840183 -1 1 -1
751 1 9.76640181830012 5.295974340012414 1.2914324673129771 1 1 -1
1207 1 1.1121279807827973 5.809825313572263 4.405697597278742 0 0 0
6 1 -0.707659710453843 6.3953231840085865 5.403299282363113 -1 -1 -1
310 1 -0.529050001422025 5.7425900023121725 4.245957562920611 0 0 -1
3633 1 2.825152616403791 5.824997894306923 5.058202918988273 1 0 0
2960 1 3.564303910913674 6.501720916358147 5.470583685466438 1 0 0
475 1 2.546575268995512 7.657322643528568 2.931756504950415 -1 0 0
2887 1 3.270199126793816 7.486719564934287 5.532780461563051 1 0 2
1182 1 4.360267424378818 7.403964168307169 4.858893594971269 -2 0 0
2739 1 5.877261510870101 6.1183614402500455 4.927557504031467 1 1 1
1921 1 3.5318464917500005 5.102305459004624 3.4027216214863323 -1 1 1
1983 1 5.323179352620685 4.3079056562408535 4.927112269119936 0 1 0
386 1 5.832988532374628 6.027477904115411 3.4828730082759938 -1 1 0
749 1 6.602057276458831 6.628306404497177 5.559904952153597 0 1 -1
1955 1 6.8401418355674535 4.7085669283968095 3.701703213085416 1 1 -1
2907 1 7.171276056935797 7.726415358700063 4.177224908804055 2 0 0
2909 1 6.997995470534428 6.011667881028491 4.495818786698559 1 -1 1
3909 1 8.026334242864896 5.845131132666941 5.557244288584308 1 1 1
289 1 7.8450063483456525 6.303309634448014 3.113103595654657 -2 0 0
2406 1 8.519298633955493 6.446394968306765 2.365897430361958 -1 0 -1
1912 1 9.241338636213635 6.483500730775022 3.114262211242729 3 0 0
3220 1 9.56628263478805 5.676354262766601 2.1909392208819507 -2 -1 0
2785 1 -0.7898025542387253 8.244602216047321 4.1235614034792984 -1 1 0
3814 1 -0.30777583329557556 7.690354518659863 5.643717974417101 -2 0 1
1969 1 0.6686412864361773 7.306867993467003 5.094057673663141 -2 0 0
2565 1 1.6975170384110845 8.149864094002853 3.5176211531977044 0 0 0
1503 1 1.8157384121234186 6.9077824397352305 5.008526603006786 -1 0 0
237 1 2.8900867338496266 6.913337388142219 4.802773328260473 1 1 0
650 1 5.869635868304381 7.136588039127711 3.5254363005505303 -1 0 0
709 1 2.4307208516256966 6.575108525458969 3.785281513549908 2 -1 0
2245 1 3.151998579117863 8.018418494893185 4.55168971942911 -2 1 0
2858 1 6.356759895020593 8.57757066607041 3.271038691375896 0 -1 1
3255 1 6.996536592892138 6.653037319144781 3.705771035339824 1 1 1
2617 1 5.7129774425382776 8.00124009156618 4.079200630061723 0 0 0
3965 1 7.790267879652665 5.141478908205091 2.6087312927911688 1 0 1
3387 1 9.875987221130362 8.123940605953079 3.3882449006623467 1 1 2
3672 1 10.659741157013553 8.456369363808479 2.6366559410401234 -1 0 1
2877 1 7.572646743370369 8.502609730981979 3.0605376350724702 -1 -1 1
578 1 0.9353597977774322 10.067731290297964 2.3317032895859313 0 0 1
837 1 -0.1641632859598472 9.194123093681435 3.833574169892004 2 -1 1
2908 1 1.6481944181464394 9.938853216052443 3.0676044753872658 0 -1 0
3170 1 0.3987199783612314 8.183469978109501 4.0841858267881905 1 0 0
1771 1 2.135851829670792 10.933618011675483 3.898814281806956 -1 0 0
1885 1 3.4327941027477475 8.420666762033623 3.478561441833226 0 0 1
42 1 3.3680332653916336 9.505394065505607 3.4812113060084355 0 0 -1
3554 1 3.7347828429858385 10.36426566641966 2.8750587244206303 1 0 2
3888 1 2.7042957610983382 8.979955902263388 4.630360257861935 -2 1 1
1533 1 4.519467381628593 6.226616565521493 2.759800253070181 0 1 0
2998 1 4.301388420315008 8.547257388927386 4.164552824781462 0 0 1
1806 1 5.636036134873813 8.890305939285298 2.394042783267734 -1 0 0
1992 1 4.780392630123868 9.469580252235394 3.191461421064501 0 0 0
2390 1 6.552247895854433 8.919524352815168 4.277120175464451 2 0 1
303 1 8.47595375953327 7.625268168954641 4.741077458386584 1 0 0
2139 1 6.066131738397033 9.6761751884043 5.051736486674612 -2 0 0
927 1 8.572994684857079 6.757169888925132 4.124642965779745 0 0 1
1797 1 7.507036058605761 10.438446569235914 3.453320237727856 2 0 0
523 1 8.461538313317382 8.34451990103452 2.5135690234632415 -1 0 0
1989 1 1.2155298360842588 11.72225523867395 4.729842289859574 0 1 0
3668 1 0.9627189623573094 11.157551011082187 2.9622663432653313 1 0 1
1666 1 0.22167788925278198 11.130062325927272 4.784846745243458 3 0 1
3121 1 1.117695363171348 10.899994150759087 3.984888754035964 -1 0 0
3621 1 0.9233571162338414 9.005969412449053 3.6447066616384483 2 0 0
1429 1 0.3853108658652906 10.163597082097072 4.61111638343966 1 1 0
1192 1 1.6309039619979115 11.938452862556403 3.5143714491016436 1 0 -1
384 1 3.1684089441440264 11.26593567048342 2.681792748570981 1 1 0
1373 1 3.6302246304055625 10.504082086531024 4.004971421860448 -2 1 0
3637 1 4.212814293449885 9.582500702616484 4.210584310526405 0 0 1
775 1 3.796594143187801 10.219937134083914 4.950695501353391 1 0 -1
3611 1 6.432305526184744 10.469342494281275 0.768503963623627 0 0 1
3114 1 4.142531361087884 10.124784534451836 6.0825797046509535 0 1 0
2552 1 5.219876549805089 9.161676937765213 4.006828640684542 2 0 1
1672 1 8.475867298568863 10.574395898595947 2.9593605327352543 0 -1 0
823 1 8.990129070273124 9.965737880802497 2.0571621252793864 -1 -1 0
1049 1 11.31484792128158 9.835595116628687 3.313361057297043 -2 1 -1
3147 1 10.512611017752796 9.913882672461632 2.5991680972726687 -1 1 1
472 1 10.853182934970757 10.881418485150746 3.5061679556848198 1 -1 0
3678 1 9.691326951578537 9.37685843957662 3.004242996266883 0 -1 1
1549 1 1.8605580429084365 10.781553079061478 4.884503846646576 -1 0 0
218 1 10.543894468988045 12.169133718166934 3.3380755495188517 -1 0 0
196 1 2.0951638135839197 12.33468273492899 4.434030956994163 2 0 1
1242 1 1.9902836856321504 11.085208177764732 2.740124995602815 1 -1 -1
428 1 3.3595521945612816 12.496531963407705 3.4722230055291394 0 -1 0
515 1 5.140026519076886 11.856137676001783 1.9595940426632361 -1 -1 -2
2318 1 2.725285378142339 12.855447177454078 6.274291541253177 1 0 1
260 1 3.8072417931275764 11.631977293257236 3.7990918716148316 0 1 0
131 1 4.009222094878717 12.62152035175322 2.3029510552453907 0 -1 0
628 1 5.181795997713375 11.673893300190581 3.746269599704675 2 0 -1
1847 1 6.108094458492424 11.347551867778106 1.5880284823297255 0 0 0
1065 1 6.669746451954602 10.949111942480375 3.86220162339525 -2 0 0
647 1 6.949732992101417 12.334011076970539 2.1249530430652217 -1 -1 -1
3660 1 4.982882181231552 10.671170721393926 3.6999637590838335 1 0 1
934 1 6.516666085700883 13.367361212861969 3.853335533811265 0 0 1
2246 1 6.532924998701679 12.289935181323594 3.8498262085946067 -1 0 0
3952 1 6.962785850581948 10.156521450343382 4.725857800558405 -1 0 0
1711 1 8.455408143409217 11.173355043023022 4.117177422106712 0 -1 0
3062 1 7.460427599707339 12.753780319594677 2.9995015686490856 -2 1 0
1379 1 8.624818233301905 13.4954465912856 3.2850242951338755 0 -1 0
2792 1 10.146844402095336 13.07026636960862 3.935290885017916 0 1 1
3040 1 9.776198830517504 11.500136962932283 3.793858511698721 0 0 1
766 1 0.9795485328912614 13.53578311888029 5.253931846158206 0 0 0
864 1 0.09399985124182275 11.070264543480265 3.5321858942559645 1 -1 0
1455 1 -0.3641290897235898 12.666587474489265 2.446140790312026 2 0 -1
3087 1 1.17395358262723 12.653986061640559 5.062339196021583 0 0 0
3231 1 0.432305357813626 13.226490413681237 3.456961936952843 1 -1 0
2173 1 1.311674282668779 12.85205668348197 2.904887206989873 1 0 0
2267 1 2.8251408782982104 13.952179221280366 3.4474793743027465 1 0 1
2761 1 4.057858303922758 13.531948369712014 4.335030106309289 -1 0 0
920 1 3.1656014232557483 14.160651339642971 4.705515048691657 2 -1 0
2344 1 5.0621963508536165 13.665356152613963 3.567029340778248 0 0 1
968 1 5.620653607505525 12.610709494053134 3.4421141611843886 1 0 -1
3143 1 4.765187394163792 12.23767885288255 3.01968763571797 -1 0 1
700 1 6.09876946181044 14.328613442505338 4.200798205834402 -1 0 0
273 1 5.220201447477166 13.539112762382672 4.549766618939118 -1 0 0
525 1 9.415804610034774 14.255587452180038 3.4283111029028746 -1 0 0
231 1 9.387654256531231 12.504965436144081 3.446686860507479 -2 0 -1
2557 1 10.745380638775357 16.06023531350496 4.289658092096193 -1 0 1
2780 1 0.36260867383416473 12.159163463067417 3.601525374172656 0 1 0
871 1 0.13840150186017164 12.171102590293184 4.587873970961582 0 0 0
1943 1 0.1645172091434941 14.68405280939829 4.786827293825211 -1 0 0
2775 1 2.1340434356512676 14.39689525572918 5.021685765728292 0 0 0
3518 1 1.2747165915469751 15.282480486772956 4.591477903119948 1 0 1
1940 1 2.9547784798791517 14.768905792056058 5.76401203413846 0 1 0
3666 1 4.43015518335964 14.599215688411261 4.769091913029992 1 -1 0
3758 1 6.850872564299006 14.601700118054078 3.2608615320867083 1 0 0
957 1 4.934350839822349 15.369288318297427 3.9070411565699317 -1 0 0
3699 1 6.315956744467881 15.276536079743439 3.8091208004387003 0 0 -1
439 1 7.666068778165156 14.678253325636424 2.490114279549601 1 -1 1
1029 1 8.825794658438813 15.843336106165504 2.4011401363725304 -2 0 0
1699 1 5.496382042513677 14.905070431757776 4.8133361706055995 -1 -1 -1
2479 1 7.477756355026131 13.873563616797883 3.6408630981428702 1 0 1
3562 1 8.29795834340448 14.62250625634062 3.8098178252374586 -2 0 0
3312 1 7.394660054915919 13.930116075489392 4.924953056125694 1 0 1
126 1 -0.8183219064034486 14.574342863171504 5.146633801833446 -2 -1 -1
875 1 9.429419145300932 13.995874717252 5.096657129779841 2 -2 0
2035 1 11.25348683207827 15.207519279084176 4.070236757968962 1 -1 0
2202 1 -0.4353661385209985 16.33557122398178 2.3386268136136414 -1 -1 -1
2399 1 0.2446561969663461 16.020796494233444 3.1636985692980613 0 0 1
368 1 1.9789601139784234 14.508952077066384 3.9743619793042555 0 0 0
1343 1 2.127378485315695 15.700530233010133 4.077926513844146 0 0 1
403 1 2.1233813717687813 16.618252108555822 2.9803268679959505 -1 -1 0
393 1 2.010174226094202 15.424221105088018 2.789367984730263 0 0 0
2910 1 5.129301969310791 17.08356659829034 3.689332032573981 0 0 0
3620 1 4.448955527417208 15.955947029066161 4.935357093620742 0 -1 1
3527 1 5.608631174519903 15.34795685255766 2.9937417354510494 -1 0 0
543 1 4.279707571735608 16.433509972750862 3.977592024033263 -1 0 0
3294 1 5.660088777026195 16.2577628416253 3.5331957228543907 0 -1 -1
3026 1 7.535629325371373 17.78764141891557 4.687766772177888 0 -1 -1
3947 1 8.60534267912955 16.950378800306616 2.5917201527488123 -1 0 2
3288 1 8.7919241634448 15.524861055019665 3.3880730002052992 0 -1 1
2912 1 8.936355955351509 16.69953245136773 4.065100074463402 0 0 2
2043 1 9.628763800780703 17.416112309709426 3.6058085593670377 -1 -1 -1
2148 1 9.899754768609572 16.11225745552285 1.9415569818350966 0 0 0
2914 1 10.50498998984391 16.082788597656133 2.8953471496326753 0 0 0
3734 1 -0.4624396720153781 16.43854895783094 3.8433089724663434 0 0 1
3395 1 -0.6312364041642708 15.510125400243234 2.922843767000539 0 1 1
1216 1 0.9328721023153643 16.366345628810834 3.763019436989908 0 -1 0
3073 1 0.6793403659987918 17.58398431320561 1.4831696552507756 -1 0 1
1160 1 1.3434472413827199 15.259676571137406 3.523426431347877 0 -1 0
2335 1 3.4342713162456686 17.16920293984584 3.506240866307147 1 -1 -1
2759 1 2.5518994524351206 16.82578752965435 4.04255808606288 0 1 1
1498 1 3.440722242732967 16.246384132546275 4.507806766801388 1 0 0
2753 1 3.1962255829617785 16.641068106626733 2.667094654919424 0 0 1
1513 1 4.145444909437464 17.58526495330608 4.033056381007405 1 0 1
2266 1 8.072034515920377 17.626605147638045 3.6499790265170438 1 0 1
2875 1 5.787596913319859 17.673448339202444 1.9418747695802812 1 -1 -1
1563 1 6.66966543340408 16.265891214997104 3.0882085241217245 0 1 0
579 1 10.164860787647024 17.236361668794366 1.3168649304716729 1 0 0
2982 1 7.486444199339017 18.61363742747934 3.298605866669474 -1 -1 0
1175 1 9.453195676741892 18.350237856531734 3.0209694696691276 0 0 0
2976 1 10.758079175842083 16.9974905248541 3.597745388713422 1 -1 0
1210 1 10.377068129789105 18.046333492945507 3.767996184562146 -1 -2 0
3951 1 10.625772180201276 19.69108545418429 3.8609150872003886 -1 -1 0
1200 1 1.7323169937158043 19.071779038145785 3.104026906564412 0 0 0
1514 1 -0.5964600905063999 17.30691488053384 3.217876584485907 2 -1 0
3782 1 1.349107119823787 18.437767405124703 4.918204437841106 2 -1 0
1265 1 0.7240392554870949 -0.8378455331355648 2.260861281224091 -1 -1 0
3655 1 1.3017458130757347 19.576989522450866 2.1731350838954135 -1 0 1
299 1 1.1383889252605437 18.465385134326084 2.313635833342946 1 0 0
1295 1 1.2276921351690548 16.709726357983172 2.4477706918463316 1 -1 0
209 1 4.208911291987842 19.768021882347206 3.394530648901876 0 0 0
2749 1 3.1980177298594965 -1.3639703026685928 4.4567375023275835 0 1 0
537 1 4.509997381965816 18.761970991329818 3.816168633712291 -1 0 1
2654 1 5.0501547881312545 -0.7013772035951251 3.80616320473385 -1 1 0
3135 1 3.0521174547556416 17.628922118179773 2.5475645203253925 -1 0 0
661 1 3.434847705718645 19.652635016497385 2.3912651735311483 0 -1 0
1136 1 3.6287062114980575 18.268219378107425 3.223394000976648 1 0 0
2209 1 6.050309501583037 17.248269819314693 3.2033180616444215 0 -1 0
2899 1 4.517707573148213 18.92687565138157 2.845356031398862 0 0 0
2950 1 5.454985022018312 19.42035169789549 3.8340138511112327 0 -1 1
1594 1 5.459793970160421 18.099449821005216 3.618647963866505 3 0 0
2810 1 6.998684200384645 17.593813388920488 3.701543234595982 -1 -1 0
2659 1 6.500837663068207 18.32854204868086 2.578129858637962 -1 0 1
820 1 9.262759974278268 19.508811712373266 1.1502540593450812 1 -1 0
608 1 9.71532321614439 18.97580035370776 3.7770650475906233 -1 0 0
246 1 10.390584223923375 18.69098132770975 2.7924550472558423 -2 0 0
2516 1 -0.8732142835720251 -0.9226733951775423 2.488370695707613 0 1 -1
789 1 -0.7565813208179922 18.533201239485635 3.070910471708533 1 0 -1
3090 1 11.085947234356947 19.552394923946935 2.9234655095387936 0 -1 1
3146 1 9.98030888436673 -0.819634245116417 3.8716206339912977 -2 1 1
66 1 1.0297394811392395 18.947657196341318 4.044835489815651 1 -1 0
3223 1 -0.3789991411788485 19.436865251840146 4.8724791420921845 1 0 0
2941 1 0.5016545096351543 -0.9154679252575538 5.316421978963036 1 1 1
1697 1 -0.4593252149830922 -0.8614889816123181 5.167470548538308 1 0 0
2377 1 1.2500404677620747 -1.4033800071219371 3.530622672014707 1 1 0
2366 1 2.130756584857658 0.388560027197159 4.261438215583065 1 1 0
2943 1 2.105423633631763 19.730360894553996 4.550468878419386 1 1 0
2166 1 2.6708702378253615 -0.49711464420421514 4.5619768238617056 1 0 0
798 1 2.7987798206632046 0.700233299520606 3.323783183383056 3 1 0
1260 1 3.1356088074113186 0.1654977079737845 5.4509941912125335 2 1 -1
3105 1 3.2092683308159637 19.137229044526435 4.865908336122572 1 -1 0
504 1 4.077390688518057 -0.7954111065693061 4.140853157696517 0 -1 0
3331 1 6.133995448715848 -1.038430119528459 4.055101634464967 1 1 0
2324 1 5.683620373149763 -0.28975770952783897 6.08515918637487 1 2 0
3635 1 4.4181814363326595 0.15552702414801023 4.662121616190293 0 0 1
556 1 6.847514513400703 0.19424924955775014 5.332164929375692 -1 0 -1
3878 1 9.07145390141913 -0.1395162469887472 4.10159433289328 1 0 1
39 1 10.526350392959552 -0.6666023289574681 4.785257812371252 2 0 -1
2755 1 11.009074460715397 0.1968427013561218 5.140147302789354 1 1 0
3489 1 10.334329448249488 0.32821412779230474 4.243932469162883 -1 1 0
460 1 -0.7899613886817602 -1.0302385734306605 4.0355170474251825 0 0 -1
1135 1 -0.3077554549959419 -0.1758422761608085 5.897487433668227 -1 0 0
3858 1 1.3083177673022184 -0.7448336757662128 4.609913879924598 0 1 2
1279 1 0.5715735814879839 1.2783161432967458 5.254543769884963 -1 0 0
1105 1 1.1492801235120464 0.6969432065325512 4.142466468114305 2 1 0
583 1 3.6056470387999333 -0.7288740108188396 5.178629115265338 0 0 0
3650 1 4.44748105062215 0.10462228465783774 3.4801039229649273 0 0 0
776 1 5.342301358262093 0.6407877871173482 3.5863393022856247 0 1 0
1576 1 6.0497236327741275 1.3365922075670005 3.8172058276635434 -1 1 0
341 1 7.491712064019945 3.183402360840529 5.315738180617273 -1 0 -2
1116 1 5.375379490701987 1.8725515548515852 5.4920218477061 1 1 0
2204 1 7.312873282096849 1.9577622929140088 3.566204263647439 0 -1 0
3456 1 8.015704131923027 1.2700952247008819 4.18788426774234 0 0 1
2128 1 7.27790822073376 1.0903479062368087 4.986363831545485 0 1 0
3072 1 7.658213383923853 0.6106370985771066 5.821203042589545 0 1 0
1599 1 8.426283749655829 1.4250831506205959 6.332416647313478 1 1 1
620 1 9.77314453323071 1.3975511201996245 5.527484009940674 0 1 0
3379 1 11.226974871246894 1.0139556934285814 4.419540423493425 1 0 0
2719 1 -0.3335465037570565 0.42719414369273156 4.849615962226742 1 -1 0
3980 1 10.806064332670699 1.0356341891168546 5.839467022973893 0 1 1
937 1 -0.18735748815314246 1.520812608514139 4.567692757647207 -1 0 0
562 1 0.35129091559210224 1.9572851496232246 3.4109303562094864 1 1 1
1731 1 0.08693445684072598 4.094750360387974 3.8303987462896485 -1 0 0
3507 1 1.4992164810457016 2.2989415784479608 3.7091768746539664 1 1 1
3495 1 2.3159053829229443 2.383249665989785 5.244063544086248 -1 0 1
3792 1 0.6122170739868389 2.2647869096622077 4.680332410786423 1 0 1
2370 1 2.767895745431769 1.626917528898998 5.983378765108962 1 0 0
171 1 3.397098410193821 2.4534853082523624 6.5690278938172995 -1 0 0
311 1 4.368901138375629 2.1053791056506967 6.0842563576959225 0 0 0
3670 1 6.596371828133823 2.023133347921383 5.591415181769005 0 -1 0
2777 1 6.299323506388099 1.205390981133641 4.993438678830944 -2 1 0
3546 1 5.865673893660288 2.04175392930006 4.64073050806144 1 1 1
2286 1 5.854012386875738 3.0891366479739704 5.80038086114765 2 0 0
2013 1 6.23378936110574 1.9893745585031977 6.562268797285107 -1 0 1
1098 1 8.167952002248452 2.534522390536768 3.303628611469045 2 1 -1
1312 1 7.528547637885691 1.7634522974060625 6.136967691779111 -2 0 1
3839 1 8.478140495374303 3.4237473350874987 5.306022068210114 0 1 2
47 1 8.392669274287343 1.483709270364479 5.265009761675954 1 0 0
1633 1 9.56853620232719 2.1569437672266307 4.6322751058310345 -1 -1 0
2572 1 8.775950349194195 1.7803763099037964 3.749308378888296 2 1 0
857 1 -0.8572781365344377 3.488314807685578 4.839029106307325 0 0 -1
3176 1 0.635289687887604 3.1209670149093913 3.9603161748570823 1 1 1
2327 1 0.16836615636805874 3.9188961488927 4.867626784619376 2 0 1
268 1 2.377452943394712 4.298457835669081 5.2407430438081795 0 1 0
2845 1 2.7064300696030723 5.2852828861996635 4.0070103363219545 1 0 1
3191 1 3.5148414560224452 2.1979469184581943 4.46843128159084 1 1 0
1459 1 3.06278064573529 3.3556142182275597 4.4940505500257695 2 0 1
1831 1 3.5967490143094203 2.0658126622863033 5.497116400990214 2 1 0
2876 1 2.465669893415183 3.2675918684437786 5.583834160144363 0 1 -1
1 1 4.224156482901412 3.392909640278562 6.45337573743822 0 -1 0
3458 1 5.183937626374815 3.298103245795139 4.484240885534242 -1 1 0
2140 1 6.246993719265736 3.953215179947775 4.279172400544496 -3 -1 0
3851 1 8.870869571526233 3.89759066392181 4.412893168595729 0 1 0
2459 1 4.58713916668027 1.9132638495035752 4.863971083845554 -2 0 0
797 1 6.216459962677696 4.304916848605617 5.655355600724627 0 0 -1
3427 1 6.915907822374625 2.8355865985116013 6.326390391062187 1 0 1
1853 1 8.70451980758949 5.146694606741644 4.90269737421619 -1 1 0
3686 1 9.683658299933526 4.188381749363399 5.366142717766019 -2 0 1
505 1 8.115560059515975 5.5214307424457045 6.5984108837595326 1 0 -1
768 1 8.407616323191537 2.5229223146107502 4.528549564924599 1 1 0
2837 1 10.279635716785265 3.5532210798539507 4.391972118836909 -1 0 1
3534 1 10.521627651904184 1.7958734537166983 4.477271963169997 2 1 0
1482 1 9.120745422026303 2.7622996053203677 3.8044665000580613 0 1 -1
1944 1 10.29376967483293 2.5525992777507334 3.726135611884038 1 1 0
3254 1 1.1906301843058773 3.8917502159738584 4.320493992520073 1 -1 1
37 1 1.7920339838605104 6.058947568002621 5.439260205075106 0 -1 0
224 1 9.70773469552312 4.475807024539197 4.026502630774244 1 0 -1
561 1 -0.8113226361668753 4.386053019652864 5.378462968034935 -1 -1 -1
812 1 3.2817962825357148 5.973293091824371 6.351670291104433 2 0 1
2014 1 2.0289416570523287 5.941263246126097 6.670530835730963 -1 0 -1
2468 1 2.5769504870305315 6.558484206112112 5.942598468067864 0 0 0
2884 1 2.775895332652414 4.0636747920671885 6.761039026244022 0 0 0
3130 1 4.225317476646962 5.629240944720887 5.751696826609067 1 1 0
1110 1 4.988719610913505 3.8058935779265974 6.018825586844644 0 0 0
1523 1 3.4283552233312458 4.836777477731562 6.309119246529958 0 1 0
3401 1 7.664520789405257 4.900300660615807 5.600545398502407 -1 1 0
317 1 7.801895092355386 3.342481968372578 4.276006602038817 2 0 0
1430 1 5.528241196684382 5.985686699472902 7.553526212073358 1 -1 1
1419 1 7.267544093863444 4.170374486391042 4.867756607487796 2 1 0
863 1 7.691553816524385 6.659436994442133 6.179218926309967 -1 0 1
3428 1 7.557333249925488 4.011750318861852 3.5873735622809813 1 0 1
1524 1 8.739408628331145 6.4555361878616955 6.454804207101402 0 1 0
2940 1 8.433694339675817 4.765016077833252 3.756604104045186 0 0 0
258 1 9.07433610912577 5.029400613530854 3.009201518227008 0 1 -1
1223 1 7.60682817256715 7.012315779704306 7.1620564138960106 0 -1 0
1385 1 0.2459911298395172 4.525235749429882 5.904421371962339 2 0 0
115 1 10.003478150633082 5.268253195461732 4.766966543910211 0 -1 -1
2132 1 11.113932764155445 5.4456511795966085 5.018573774154663 0 0 1
2294 1 1.1621668830121918 5.606851586991323 6.166692157846315 0 0 1
1721 1 0.04632206920413506 6.834553155745102 4.228631619050756 -1 0 -1
3891 1 0.7217385603039439 6.424335929383562 5.821875391514669 -1 1 0
3094 1 2.4561911713413345 6.518833308586826 7.3695992498567 -1 1 0
3844 1 3.354929784902473 4.915929132827553 5.25618447283313 -2 0 1
1908 1 3.4270580259461765 7.015890539365413 6.56877812359448 0 0 0
3957 1 4.280000574616438 5.483718242768761 4.547923487673025 0 0 0
3795 1 6.55315349635416 5.371974545931865 5.838049382526452 1 -1 1
1357 1 7.170514485761306 5.889851205295935 6.817911027931162 0 0 1
415 1 6.7348070202129655 7.44239870047204 6.4462621472119945 0 -1 -1
3338 1 8.856883758189996 5.644466436433029 3.9150911978818437 1 0 0
648 1 9.528162299306617 5.46392632711301 5.720308070718143 0 0 0
468 1 8.341057418169003 7.485459189462523 6.3608413923968135 -3 -1 -1
2646 1 8.953508928994747 7.592230624535256 3.3981377285386376 0 1 0
2016 1 0.26970510145366866 6.115201438109846 4.878458971226939 2 0 0
3736 1 10.564106499122717 6.358857453587305 5.0048442458434375 -1 0 2
1140 1 1.7458339948639425 8.491811132884958 4.463007951643461 0 1 0
1534 1 2.399884505983406 7.610179844420527 4.094366602770968 1 0 0
1378 1 3.5076033094104577 9.143338825068733 5.200922491850314 1 0 0
652 1 2.4405905585293843 9.791690345101367 5.3501027550848 1 1 1
3986 1 2.8783082684594903 9.07471627455201 6.04160036082923 0 1 0
1993 1 4.63493600672501 6.994014185333491 5.797547869034889 -1 1 0
986 1 4.743341967284174 6.33658655934101 3.7887289363407097 0 0 0
3634 1 3.9119217678989084 8.309584096670305 5.175949802810793 1 0 1
600 1 5.368918400536726 7.261345711108794 4.851995506888165 1 -1 -1
3636 1 7.3092008479988895 8.348236953519507 6.1516873214831564 -3 -1 1
1675 1 8.4588163554573 6.7075153858821235 5.55485960959215 1 1 0
2058 1 7.6811247456016325 6.8934265615215615 4.763206314488127 0 0 0
2427 1 8.095500045815605 8.791004542329196 6.7594733476149855 1 -1 -1
3492 1 8.272675585073591 8.675491740755685 4.759527799687066 -2 0 1
3875 1 10.631711788443795 7.326196683635295 5.135367733228009 -1 0 1
2975 1 0.5479273983955135 8.544514041037132 5.869523526236351 -2 0 1
2338 1 11.120344264809372 9.043372465586673 4.464419734728894 -1 0 0
2773 1 -0.24301943967069084 8.791462063954244 5.019644914409887 1 1 0
3239 1 3.987958700093473 7.913986876394523 6.12210998223889 0 0 1
2801 1 2.8295542423948015 9.999877228805587 4.421984287586722 0 -2 1
3522 1 3.224020297461662 9.979171134888979 5.887609051386406 -1 1 0
1997 1 4.819872496712617 7.263437219161217 3.6131754068722337 2 0 0
1914 1 4.413341503965725 9.104392792211256 5.74878601633749 3 1 -1
2731 1 4.965422227526225 9.608596581167522 5.008678731374578 0 0 0
3477 1 7.0233308484969035 8.647586834106077 5.2173306261801775 1 -1 1
1996 1 5.093138170590679 9.320029391545381 6.70877646670872 1 1 0
471 1 7.8781495104978365 9.039603096451362 5.717934566935238 0 0 -1
1929 1 7.639033680357871 7.49613238507899 5.5760687206639235 1 1 0
41 1 6.294205239135942 9.967471995717133 3.839018195268739 -1 0 -1
2255 1 7.861162379115026 9.81451957755813 5.039594682548336 0 1 1
1898 1 8.73638766049643 10.199246659903777 3.9659995255451177 -1 0 0
1390 1 8.141804975783916 8.186300904258026 3.8694016756816136 -1 -1 0
2832 1 10.440574556865865 8.290452779815434 4.4654512726353515 0 0 0
3779 1 10.01608817854548 8.496749486907385 7.034683195402575 -1 -1 0
2649 1 -0.6282184787516556 9.847080107709996 4.7205305818760275 -2 0 1
1951 1 9.089346911034998 8.627582031847991 3.8027419539846683 0 1 0
2559 1 11.19760735495843 10.273150668599492 6.09509335095727 1 -1 1
1670 1 -0.02595600771701767 9.308717606054463 6.063314790916729 0 -1 0
549 1 1.4810484443473637 9.849968641694701 4.435476823050794 1 0 0
1480 1 1.819518820964376 9.014539944198592 5.517301834441455 3 0 0
3392 1 3.1041056566156238 11.331069185428245 4.810887220870706 0 0 1
1208 1 3.5744862083554985 11.45843602613835 6.006675032884768 -1 0 -1
1881 1 5.760829891393405 8.552025639288404 5.238813425627011 1 1 1
2611 1 4.575431447564568 11.121673398181734 5.71610749921744 -1 -1 0
3217 1 5.8960459252295445 10.060800589967577 6.082393847655331 2 0 1
3290 1 5.818455369750608 10.142663672936841 1.9165805853107059 0 0 1
3484 1 6.676410192955718 11.24274485603424 6.612396836170831 0 0 2
2223 1 6.957261584379864 10.234530207938676 5.953450942904591 -2 0 0
3214 1 7.665916913872394 11.021312151346839 5.551158021205127 -1 -2 1
1173 1 8.037197171040678 9.404383130932281 3.97320746787532 0 0 -1
2528 1 6.623872141233131 10.92169698572365 5.290707136720132 -1 -1 0
2593 1 9.45608435796359 9.729388709807282 4.598474413125895 0 0 0
4 1 10.497135839193502 9.94942418558428 4.05808198813846 -1 -1 -1
685 1 0.9504777118421499 9.591973460792866 5.584165143802114 -1 0 0
970 1 2.336602602241159 11.846012400369407 5.612486695278507 1 0 0
3107 1 0.7564864714778969 12.386366103337028 7.904222227004064 -1 1 1
548 1 0.873651489589802 10.936119284391843 5.610746401741715 -1 0 0
366 1 0.2756730061669388 11.32422784604806 6.647974941667927 2 0 -1
2549 1 2.8165141644763962 10.984634663611937 5.66103272647908 -1 0 1
889 1 2.042794681614226 12.619834334117423 7.159469531042003 2 -1 -1
2196 1 3.920019950860521 12.37699959069905 5.754995183630432 0 0 0
68 1 2.5016295681631635 11.92639315535932 6.638622163173023 3 -1 1
1325 1 4.428310190867112 12.565453095352147 4.069604668140548 0 -1 1
1033 1 5.8567504617653805 11.633020092651462 2.6965614175882804 1 0 1
953 1 5.435720739649484 11.667145690765226 5.374174007085189 2 0 0
3589 1 7.510627530165774 11.471801320310382 4.511050919297726 -1 0 1
2849 1 8.735070750878766 10.530167943028411 4.931412303629087 -1 -1 0
2980 1 8.527254858447888 11.686456000486388 5.234857408468601 -1 0 -1
347 1 9.904670933140276 10.731106550494193 4.534257931950472 -2 1 0
2869 1 8.372602453771286 12.256089508591026 3.740090958503316 -1 -1 -1
1186 1 -0.7290759495793284 11.25984594389887 4.294843205723478 1 0 0
2594 1 10.588184795144121 11.631001700813359 4.4026842611182415 0 0 0
38 1 0.4792709584551742 12.070971532008242 5.678077121990851 1 -1 0
2825 1 10.833101173139013 15.425221284865364 5.34146963646544 0 -1 -1
2710 1 -0.18372275219398781 12.924393379959966 5.5629662311811945 1 0 0
3941 1 0.9080986009860608 14.093798858806862 6.328379242852961 2 0 0
3790 1 1.1376977988684782 13.25664157087573 7.047440983807741 0 -1 1
3129 1 3.0171097360080084 13.853266452702856 6.12690791652338 -2 1 1
1785 1 3.5032743395145607 12.365795245555828 4.7228373667227705 -1 0 1
1360 1 3.911049063687443 14.116971115558071 6.890826070480541 -1 0 0
1401 1 3.832024274601457 13.637042392235664 5.452787730280656 1 0 0
3132 1 4.893094437167251 12.789193267396127 5.299264956026916 -2 0 1
3300 1 6.425136679164396 12.894879800624832 5.071655503986013 2 0 1
773 1 5.565442404113727 12.484275690914302 4.555261742545132 0 0 0
353 1 5.75108573955202 14.276614036999968 3.1635304018303696 0 -1 1
3424 1 5.902856149355468 13.67839686858671 5.235466562409082 1 0 2
1957 1 8.63641843068677 13.680513727521554 4.467402631586419 0 0 0
585 1 5.603891100734138 11.156753452029589 4.5403172719699585 2 0 1
3015 1 7.414988710334624 12.947278204032505 4.189898594616939 -2 0 1
156 1 6.3539071258861455 12.12857730108132 5.841654617178943 0 0 -1
232 1 -0.7412621242795343 12.295803929642233 4.0407838242522764 0 0 1
1590 1 9.408370878458792 12.917441023625864 4.738607757957034 0 0 0
539 1 8.57899695317668 13.49891609351755 5.7571933331534275 0 0 -1
3897 1 -0.7311182821499403 13.472507562968072 4.614691680780472 2 -1 1
1067 1 10.60552473386961 12.534279155919588 4.8673727336331405 0 0 0
1964 1 0.02527601815342939 15.425652650720073 4.003282315193117 0 0 -1
1725 1 -0.010373184152961512 14.01346670242614 5.655869475862068 1 1 1
1902 1 1.0558657482219351 14.66488655030877 5.471538146728151 3 0 1
1764 1 0.4043977847745921 15.873697357519093 5.3355819924614325 0 -1 0
2471 1 2.7538932460086136 15.41104518154779 6.70910070782522 -1 -1 0
1287 1 1.7150275975723366 13.286489392942899 6.241934425626149 -1 -1 0
1777 1 2.2594870673259604 13.199513502210706 5.119964667188054 -1 -1 1
3510 1 4.018351583645254 14.678141533909743 5.891234614901984 -2 -1 1
484 1 4.832778757605802 14.079611035486925 5.585769260176165 -1 -1 0
1170 1 6.698777520481208 14.798784709576148 4.9285164104586565 -1 0 0
2078 1 5.729668066791854 13.02610991754296 6.021262376555335 1 0 1
517 1 4.2635155153667155 15.959088196553383 6.07685778589554 0 0 0
2292 1 6.735689087023242 13.94241218463394 5.922788757166725 -1 0 0
3933 1 7.596029053037073 13.187714099667097 5.680348228123519 -1 0 -1
1209 1 7.703485438349096 15.376808441649503 4.119255220528333 1 -1 0
1555 1 8.59441475651006 14.633319844314121 5.128449217608806 0 0 0
2027 1 8.25359214827146 12.779371649240124 5.003215109505584 1 -1 0
3467 1 9.21451623422037 14.798783748523197 4.389517316814816 0 0 0
710 1 9.63119688988648 14.94752176946905 5.554161411963494 1 0 -1
3419 1 10.347774551055647 14.570171985866684 4.773905787561894 -1 0 1
1975 1 10.600346513980876 14.358610030764625 5.813259729066948 -1 -1 -1
3374 1 -0.6520413820786225 15.735088022679276 4.811312284983086 1 0 0
2702 1 0.2799978830183074 17.09801096202297 3.7867477977325885 1 0 0
3662 1 0.4030908220418268 16.61178288930833 4.67178640624995 1 -2 0
343 1 1.0256429376845648 16.79649190230242 5.90229275654298 0 0 -1
282 1 2.3915553134384795 15.732744896789333 5.317350580794196 1 0 0
2382 1 1.5392589515764628 16.188925605039522 5.0045335599967835 0 0 0
3960 1 3.233079629767115 16.327763239586325 5.761102665573829 -1 0 1
1103 1 1.2784129292236428 15.711299782560426 5.853232308180932 0 0 1
3830 1 2.036151003353273 16.40007201213922 6.100046201436443 2 -1 0
925 1 3.5503012784633556 15.449659593812546 5.277058485463037 -1 -1 0
1900 1 4.977458126957058 16.488801003463976 7.109226740443789 -2 1 0
2189 1 4.216373321599986 16.841976875201702 5.583275836555787 2 0 0
72 1 7.668839783911386 17.323163721155325 2.525811410702941 2 -1 -1
2049 1 6.93745969571877 16.489120941644067 4.078595719708683 -1 -1 0
2116 1 7.264906319308766 17.066494144794746 5.4411902006767 0 -1 0
2350 1 7.772153806872648 16.128917704735784 5.402684353401004 1 0 1
1683 1 7.6019375451611815 15.077942577707413 5.3628266121351995 -2 0 0
1132 1 11.303166400821908 16.948513943356637 4.469456942247015 0 1 0
1195 1 0.06328783800260984 17.123832469025473 6.0769259200299715 0 -1 1
1348 1 9.593947371601988 15.929148032574885 4.961171770910434 -2 0 -1
2535 1 -0.34290790401801485 17.591315489058445 4.881714821142559 0 0 0
642 1 1.1292402041837657 17.53867798396891 3.242578451583549 1 0 0
2788 1 1.5643347528589469 17.168387703730502 4.705628508675217 0 0 0
181 1 3.389225388595259 18.265532998851015 4.242073028279406 1 0 0
1320 1 2.6359821351132413 18.690028165560683 2.719196676368619 3 -1 1
3959 1 2.4718767791746172 16.927431095730995 5.193026150592368 2 -2 0
3291 1 2.511606781350361 17.85145255172187 4.70185603803165 1 0 1
2489 1 5.374094058577186 17.71904348885893 5.3378937375385505 1 0 0
911 1 4.249012458623522 17.035978383554074 2.5624182218362117 0 -1 0
2574 1 4.892845072066709 17.408529831908844 6.331489546022608 2 0 1
3124 1 5.117927869120664 16.84421106745379 4.734765723290643 -1 0 0
3671 1 4.247870516384735 17.74487306636881 5.2564147515142565 1 -1 0
1742 1 6.53532084752183 17.902461392066236 5.669095704219868 -1 -1 0
2430 1 7.4979232140752075 19.66165313401917 5.005228057861223 -1 -1 1
2462 1 7.79836216902059 16.845411121374184 4.580197030249832 -1 -1 0
32 1 9.486568839348724 17.64738960845571 4.688507775515651 -2 -1 1
1122 1 8.465644198426176 15.882717702324713 4.612309622323659 0 1 0
3044 1 10.043487700321958 16.783768048144516 4.33049749691685 -1 0 1
455 1 0.41314650738281045 18.41585864107057 3.2004493094205744 1 -1 0
2386 1 10.873719132245471 17.766492244666182 4.942650520923846 0 -1 0
360 1 2.258116561650025 -0.4565134731136804 5.518922699797931 -3 1 1
3450 1 1.3817376645655486 -1.2338690771264231 6.2916797443299775 1 1 1
2608 1 2.1233786121332865 17.8897577721647 3.4795565179028767 -1 0 1
1471 1 3.4154323948592404 19.208195060160158 3.763760170471304 1 0 0
3903 1 4.131978957521065 18.7289372169475 4.926273974647134 -1 0 0
719 1 3.4296834541222285 19.557872599656612 5.984681751001334 1 -1 0
2959 1 4.25361686820202 19.61097868526803 4.376744036042143 1 0 2
1347 1 4.463367601351247 19.57898008714426 5.490328004535762 -1 0 0
2285 1 6.477202093429438 19.369114968930894 4.442857481056206 1 0 0
1803 1 6.471377833576527 18.70110364928761 3.702705996720314 0 0 0
2359 1 6.028628341188687 17.534841811530384 4.499338594483891 -1 -1 -1
1552 1 7.436366462508445 18.836376587953147 4.364355922440635 0 0 0
969 1 9.063482106927125 -0.8951558122592114 4.886089735595868 0 0 1
1868 1 5.164219403345647 18.567012884792284 4.5951377096895545 -1 0 0
2460 1 9.21325439263957 19.3059349360232 5.359428552753702 0 -1 1
2848 1 8.440134027460953 18.370750138680215 5.713162621248665 0 -1 0
2051 1 11.204338468122964 18.753328690934765 4.454704749623858 0 0 -1
2031 1 10.472946010357903 17.677713069898175 5.894523595206612 -1 -1 0
2067 1 -0.8114625375154304 18.706747261523972 5.5214692369574205 3 -1 1
2834 1 -0.8314790893949707 17.866365510098262 3.970065556306265 2 -1 1
3786 1 -0.587538271412978 -0.9885358832546505 6.848967503115359 0 0 1
1678 1 0.5444796038617408 -0.5658064615881387 6.3646148488108665 0 1 0
824 1 10.948655968822615 0.799456255467565 6.961708044031042 0 1 -2
1920 1 4.366845350363873 -0.9764116144456328 6.308481439584179 0 1 0
3436 1 2.6807417297310163 -1.406941783433451 5.319029108333027 0 0 1
3526 1 2.678284783775262 -0.7749590494578229 7.498630125812339 -1 2 1
1808 1 4.632010713020332 -0.8712125632418728 5.041406265726141 0 0 1
3950 1 5.333711774388957 19.530578089555057 4.881059943936297 -1 0 1
977 1 5.397342080823011 -1.523741059274471 6.387900123453527 2 0 0
3730 1 6.4744611364976565 19.59280274163457 6.60130648491149 -1 -1 0
1917 1 6.14412769127787 18.843733608736713 5.3411753397391974 0 -1 1
1587 1 7.896162171785715 0.06862197171982065 6.9728381391135095 0 1 -1
144 1 10.820162165021896 -1.4079772489193987 6.540669660866079 -1 0 -1
2968 1 7.6906866898230835 2.1770617216397277 5.050279320052938 0 0 0
149 1 9.687674719849086 0.011425735075195842 5.090422631280184 1 0 -1
2284 1 6.668627288539225 -0.9133678784585864 4.875386058273727 -1 -1 0
1176 1 7.319494670550988 -0.8813393213696062 5.880791539190775 -1 1 0
469 1 10.901353402163178 19.66467352550749 5.0575315044378835 -1 0 0
1877 1 10.883149506267596 -0.19621441582912502 6.144090155108521 0 1 0
588 1 0.5094909521362776 0.31859556353714846 5.545433056566194 0 1 0
2524 1 1.5005488354389205 0.5775464081830695 5.162417943390105 -2 0 0
1904 1 -0.4780074421341717 1.2021163769387018 5.551078838353434 -1 0 0
3977 1 1.6835724941459413 -0.10493357320867847 6.670905640252551 0 1 0
1477 1 0.6195362302822465 1.9690535625544916 6.047918394483631 0 0 0
3740 1 4.666684112313306 -0.768524466790561 7.164895355211513 -1 1 0
1927 1 5.716507893879782 -0.5065066668835367 7.45379756499416 1 2 0
205 1 2.6032340521301953 0.2811510286655481 7.092561958073022 2 0 0
2715 1 5.7267339951213225 0.9858064988399904 8.212655703309077 0 0 2
1448 1 6.4340599778741625 -0.7394587230706459 6.581168218831804 -1 0 0
1039 1 6.232085888273425 -1.497189309059134 5.590770882390218 0 1 0
396 1 5.2133323653855435 1.1162130486842137 6.275115400820252 1 2 0
188 1 7.001576544260325 0.08448891170529804 6.451100844953455 -1 1 -1
690 1 5.508045453390015 -0.26857953209679186 4.693351748017623 0 1 -1
1023 1 7.782200166808641 1.8916115693402804 7.484283033719809 0 0 1
3043 1 8.953646462475827 0.7199375813082498 6.791371831217816 -2 0 0
2401 1 9.876002548531481 1.4505465102119537 6.7951176148735275 0 0 0
1321 1 9.693573944430655 -0.9976597802682667 5.653303177980339 -1 0 0
796 1 10.040074929404613 0.504721959246416 6.173964690529602 0 1 0
2421 1 9.981474480799617 -0.5662803392383249 6.5402614533886725 1 0 0
1636 1 -0.35318276542563476 2.2132371949307257 5.300271952688777 0 0 0
613 1 11.309020834015133 2.58467135543642 7.016498668684074 0 0 0
1059 1 -0.07396699411080898 1.6911261788798697 6.784254829018501 1 1 -1
3838 1 -0.2578171296335132 3.4247140504312377 5.6836700812735 1 1 0
2776 1 1.6176225837286728 2.9805917662037436 4.748935606864548 3 2 1
1450 1 1.2970778700849506 1.0444845469915696 6.2902563769598965 0 1 -1
1894 1 3.264254888058769 0.6859138904268529 6.485270478283338 0 1 0
2651 1 1.613614747325657 2.266705465929054 6.044604207047712 1 1 1
2744 1 4.217280366554458 1.0654735948350353 5.869675912312214 0 0 0
173 1 5.273925692750472 2.4099857030492 6.5143186302171125 2 1 -1
1314 1 4.720023340064431 0.15105364100598573 5.8570933813160115 2 1 0
2586 1 6.634551073143851 1.0791540246148603 6.085844397673479 0 1 0
1694 1 6.975932200265907 2.6133225823554644 7.381777917857292 -1 1 0
1298 1 5.20019140560902 3.317764268736008 7.094146624667147 0 0 0
2863 1 7.107508904203577 0.9888376362745075 8.741660145249067 -1 0 0
124 1 8.831659815506473 0.23794768598936167 5.766358084076266 1 0 0
3394 1 8.51313255799236 2.3897722667265793 5.744084429050844 -1 0 0
2803 1 -0.27309284360010244 2.768771091952873 4.245591620128711 1 -1 1
2159 1 -0.4943870424807361 1.0514294207946695 7.463312281823141 2 0 0
3430 1 1.159588486330159 4.875057627548952 5.299984498306322 1 1 0
462 1 11.081962336468088 3.6593438474132176 6.3491498046672135 1 0 0
2633 1 -0.8456197883030696 2.2941444399767565 7.985874364734883 0 0 0
1386 1 0.6517547306325371 2.9913940549393097 5.333807804434364 0 1 0
2144 1 2.0734944654551386 3.097888850422497 9.507831255380696 1 -1 0
2920 1 3.4819861873700164 4.03078430310141 8.475692939566656 1 -1 -1
3538 1 3.824036323915367 4.248975182851623 7.183461438607523 1 1 1
2018 1 3.2043027802712905 3.4395446262770824 7.512449966099977 0 1 0
2599 1 4.86202997353236 2.856452376243893 5.534593742986807 -1 0 1
2504 1 8.146911411257735 2.9053164573824635 6.85759996081404 0 0 0
1394 1 7.90974268551097 3.7424620610670347 6.18120404666226 1 -1 0
744 1 7.170219284325036 3.785342086121066 6.9634388746870375 1 0 0
1112 1 6.298484440526912 3.5345007931113326 7.538084704029888 1 2 -1
3542 1 9.105833474170048 2.144711702641834 6.600237225806165 1 0 0
3410 1 9.587545773146662 2.5417107787724182 5.671775247408755 3 0 0
2080 1 9.355237033418309 3.158139670655551 4.814158421865323 0 0 0
3604 1 10.61051316791627 3.1053958610155927 5.425432818625158 -1 -1 -1
1730 1 -0.6304334988049336 4.825956294617378 4.553954994702607 1 0 -1
1030 1 10.607027274726054 2.1232640337397 5.450953302536955 1 0 -1
3104 1 0.404943307840125 5.019755480759859 4.444050729565145 1 1 0
892 1 -0.014091316735190484 5.4713313947821645 5.699506162823786 0 0 0
2315 1 0.7640761951853297 3.5343027408265852 7.491875445702176 0 0 0
3 1 1.3821190272687534 4.912996680657169 7.728602304908257 0 0 0
2643 1 0.42960771496700834 4.559572083786475 7.698331136506706 0 -1 1
1484 1 2.6149896898832816 3.103648480813475 6.594404936972175 0 0 0
2979 1 1.3860208838128996 3.3873943124029138 6.491390818639496 -1 0 1
2657 1 3.9622116221367705 2.919589148635306 5.143462547166348 1 1 0
1550 1 4.223618545379043 5.427768115256179 9.157048198740465 1 1 0
3210 1 4.67645697394101 4.734974044325879 6.481491861787039 -1 -1 0
2750 1 5.518803570528905 4.110189267170036 7.694808784398209 1 0 0
3491 1 7.256525233878831 4.796018898396013 6.620146840311845 -1 1 1
568 1 9.561790671628914 4.544741671076889 6.464442078243599 0 0 -1
1543 1 11.134576879785778 4.294577568585951 7.106778101752459 0 0 -1
2317 1 9.065114936455123 5.460971333865311 6.686655371433272 0 1 0
3854 1 -0.6977102726538253 7.628667363102654 6.919495518193029 1 1 1
2757 1 2.485393529075842 5.241807956116841 5.877276435655964 0 0 0
3077 1 0.8240033468853099 5.061213969045498 8.518034674012444 2 1 0
1054 1 1.5603280301679296 6.8001575368078555 6.203831933487165 1 0 0
1074 1 -0.09878577365517593 5.7292192082672475 6.74829076043989 1 -1 1
3823 1 4.9255148751317215 6.1923066554870765 5.241830342811294 0 0 0
1500 1 2.793358222458009 5.557639512811555 7.218221954503482 2 1 0
2754 1 2.217001456248251 5.925686302199859 8.400190990153218 0 1 0
1790 1 5.517771000727949 5.0888302771899285 5.727743796738827 0 0 1
3406 1 3.917139236055508 5.418910129137971 7.114771568758286 0 -1 0
3400 1 6.604196703500196 7.66982373001626 5.153966539209419 1 1 1
25 1 4.478364600078387 4.480290937320383 7.873338537955661 0 1 -1
236 1 8.668725123772596 6.795434010246385 7.362917726643133 1 0 1
71 1 6.5469864790712915 6.8716716961780335 7.898500162601501 0 -1 -1
3966 1 7.5393594638269015 4.813182395599057 7.59364467491984 -1 1 0
2798 1 6.492617474108307 5.057285384634115 7.913019306926278 -2 0 0
2323 1 7.577280470861583 7.98579241431597 7.244123252145776 1 0 0
326 1 10.545496088195492 6.077247994001959 6.1881475880371495 0 1 0
1781 1 8.667099439335855 4.570347374819168 5.702791569849114 0 1 1
3949 1 9.685547838865153 5.373453817539904 8.24683290862917 -1 0 1
3701 1 10.248551697268498 7.504016328935963 7.043702569133748 -1 0 0
765 1 10.692411568016063 4.496963602317646 4.549560531611112 -2 1 0
2106 1 10.399500298750175 5.542384490897839 7.19911586544071 0 -1 0
3405 1 -0.7246512447207676 6.552771851322307 6.463006693644605 0 1 0
2596 1 0.4186765162070514 8.156207015797914 6.933871691967866 0 -1 0
1315 1 11.176167689588283 9.420906254038606 5.486821269789083 0 0 1
1597 1 2.92367372289229 7.84269436756809 7.899051670156606 0 0 0
10 1 2.2586097961850204 7.98596686977033 5.198201815710183 0 -1 -1
3982 1 2.1675860331493544 9.3864796589587 6.7954673046723055 0 0 0
3553 1 3.095093765696896 9.580063042849725 7.3776180638671764 1 -1 0
956 1 3.955245265179146 7.874854404726115 7.161476174824266 2 0 0
2721 1 3.559735820371195 8.718049902739333 7.714315312271822 1 0 1
1518 1 3.983236519834448 7.468408098156155 8.116398264680932 0 0 0
1071 1 5.429699904784312 6.244208157555429 6.1571023501511135 1 1 0
3035 1 5.588975527399033 7.501885149814893 6.2378807911695935 -1 0 1
3320 1 6.259963625817409 6.415361179690089 6.925322503478638 1 0 1
660 1 4.92249021529309 8.17158479641707 5.5697443677723655 0 0 -1
194 1 7.938159072531867 7.982028167279601 9.166735757573528 1 -1 -1
2852 1 9.660760865747452 8.284554422220445 8.157466391241174 0 -1 1
1261 1 8.349526877219901 8.293118458873398 7.923639485374551 0 0 1
3283 1 9.18849322645587 7.68219962958568 7.465473389583629 -1 0 0
3244 1 9.27057559270445 8.009287829473397 6.471814535208041 -2 -1 1
382 1 11.401254018825679 9.356871309943234 6.695740804662197 0 0 0
3482 1 10.767487047284357 7.3378241531408985 6.198432585389157 -2 1 1
1244 1 9.884109807244323 6.7900506222401 5.697501458729617 1 0 0
2981 1 11.025682136975353 8.278640641284046 5.579595997095819 3 -1 0
991 1 0.6813954404539186 7.357160319327914 6.379932169054643 1 0 -1
2765 1 -0.48833228915047533 8.449153700331633 6.363858632749373 -1 0 0
720 1 -0.37890974884547446 8.142816461093643 7.877001290239047 1 0 0
1277 1 10.97132057221719 8.710473185081664 7.3666406759983545 -1 -1 -1
1081 1 3.8527905359265064 8.991274741392532 6.7022520929392595 1 0 0
3762 1 3.241868139049525 11.123347891848923 9.085201277752251 1 0 2
836 1 3.1401122635993266 9.6592026292857 8.887115307716332 0 -1 0
272 1 6.5500287794584295 9.269193115221547 5.862816551552195 1 0 0
1388 1 4.608066080393504 8.96034088140049 7.46853551524962 0 -1 0
253 1 6.180380645137528 9.52145276044006 6.962953798251583 0 0 -1
3452 1 5.359804751276653 9.697138750310499 7.852758024135323 2 0 1
1487 1 6.867508724740312 8.672752678931133 7.165942296232441 -1 0 0
2740 1 5.652292172190727 8.746254961433788 7.496842994256967 0 0 1
329 1 8.08702420383438 9.051475620544572 9.145039464345107 -1 0 0
2534 1 8.630444158445746 9.612483149130501 7.066711959186071 -3 0 1
2464 1 9.601758956060333 9.45620207254071 7.584558935159324 0 -1 -1
979 1 8.639251472813415 9.235661115221438 8.077391592463233 0 -1 0
3360 1 8.626693449129542 8.267095689147292 5.641952895110137 1 -1 0
459 1 9.78660103105565 7.318595032525 4.580969758216504 1 0 0
2387 1 10.561486973502006 9.328792948094325 8.24604521904931 0 0 1
2454 1 10.134090429346255 9.179977689248869 5.401399909955278 1 -1 0
1042 1 1.6389704542184829 10.193890647496636 5.968673172887891 -2 0 1
3242 1 3.266066218599186 10.484538035604723 6.909114371451741 1 0 -1
3702 1 2.679124743938741 11.154000020421893 7.453251892100802 0 0 0
3361 1 2.358194589865029 8.652782610720722 7.741330373048342 0 0 1
657 1 4.630522435013742 10.649050598783667 4.645319578884533 1 1 1
3128 1 4.296226558512415 10.0001846963496 7.5881257364647965 -1 0 0
2469 1 7.41641184290793 9.608915217711788 6.595065225442042 0 -1 0
461 1 6.62532332449973 9.484928595359191 8.040683764131888 -2 -1 0
779 1 8.30169340394402 10.357964926811798 6.194823182593102 0 0 -1
1166 1 9.466459791855186 9.135837129706276 6.292928479100561 -1 0 0
3815 1 7.755255421500612 10.377759176190814 7.188180143178062 -1 0 1
2947 1 8.928640086893003 9.663852941052632 5.458064848494232 2 0 0
888 1 8.97644302483004 10.759734457316736 7.060466428534912 -1 0 -1
687 1 10.588768024975352 11.954390617468205 5.73015261013687 -1 0 -1
257 1 -0.13144037205243142 10.6400516399755 5.751923735570343 -1 0 0
3240 1 0.04895461785376842 12.35983393706141 6.695930058915069 1 -1 0
3704 1 1.3538413882909563 11.989051356179498 6.400401077226837 -1 -1 1
3335 1 -0.7517865256435244 12.263768887127483 6.112558816187754 2 0 1
59 1 0.121146437244535 11.512958899115096 7.662160581733504 -1 0 0
3261 1 -0.48372982400664544 10.134124370679709 7.159498885462858 0 -1 0
2622 1 -0.050432989861436295 13.170572922440149 7.696881079629659 1 0 0
3500 1 -0.012990924094567369 12.026358142771942 8.547553590958145 -1 0 0
3753 1 1.6565647399162269 11.737779410456325 7.819706127439835 2 -1 1
1289 1 5.085801764047054 10.310709910934076 6.905773932889243 1 -1 0
3327 1 4.085784670004313 11.29384217580286 8.100611658830305 -1 0 1
3529 1 4.2487199109477185 12.677736119792124 8.188632559830285 -1 0 0
421 1 4.2360168143273125 11.052758617313486 6.874577732621056 0 0 -1
1893 1 3.702502728587384 13.38957076152172 7.638786095654 0 0 0
3593 1 5.906880354607442 11.491516347747547 8.714139829747898 -1 0 0
3892 1 5.657002753940661 11.162841294508913 6.34773967284801 -1 0 1
1421 1 6.361791399424978 11.808743575589308 4.7301912419989085 0 -1 0
982 1 6.727435890549294 10.265253938847637 7.432940466303878 2 0 -1
3777 1 7.352562393411295 12.010549211251808 5.517054305782094 1 -1 0
3773 1 7.769700660479611 11.374937588834374 6.747456398993586 -1 -1 1
2154 1 9.723531976665951 11.60240850063016 5.4283654838849635 0 0 1
2191 1 11.310374551610233 10.765544226369409 5.082118439925149 -1 -1 0
740 1 9.38228320106384 10.378261662706217 5.9925645173126085 1 0 0
3543 1 9.537346862556745 12.610137725677252 5.842755418592967 0 0 1
767 1 10.366451395373119 10.720121652085924 5.500266534867792 0 0 -1
899 1 -0.7597178640574568 11.953526199851694 5.069848388838705 0 -1 0
284 1 11.393786813947715 14.068782064694886 7.600883590079409 0 1 0
854 1 0.7015693918947337 13.072209509748154 6.13220121613258 -2 -1 0
898 1 0.6643605035891944 12.717144419733193 8.79658161798607 -1 0 0
874 1 1.2268634184008458 15.049399329472587 6.881286301440497 1 0 0
1736 1 1.22127130677409 11.772785233153636 8.886803614123636 0 -1 0
760 1 3.788619532173678 12.836546885969073 6.70422587478005 1 0 0
3879 1 5.078052812755365 11.583703586800343 7.55161163043995 0 1 1
185 1 4.96218669633413 12.103243938434884 6.353964741531706 0 0 1
2501 1 6.842394122536194 14.031441057068069 7.021151831339104 0 -1 0
3460 1 7.8373150867673065 13.31292262058908 6.694123386583062 0 0 0
2513 1 9.518173661022484 11.866218128694882 6.734430350777327 -1 0 0
2136 1 8.545327261011728 15.696167283237424 7.373312164884336 0 0 0
581 1 9.045473831868977 13.028630488688398 6.685870300453038 0 0 -1
1638 1 10.53632133445794 13.552026875738294 4.9886669862765665 -1 -1 0
3481 1 8.870989237422148 14.450221113600406 6.278375612488106 -1 0 0
1021 1 10.398067090353015 13.846788709492817 8.146556533201029 0 0 0
2683 1 11.194423580498718 13.37318271978634 5.866236921507735 -1 1 1
2157 1 -0.5311583300265366 15.645898557519692 5.906624444889887 2 -1 1
565 1 0.0021508441355397867 13.826679955150048 6.771084425503513 0 0 0
2376 1 1.477117690939989 16.206607269349625 6.862238579505911 0 -1 0
2046 1 4.723377289346339 14.999088434466886 7.670847055096452 0 -2 1
3987 1 3.06605455157666 12.132758073384018 7.445390478874485 2 0 1
179 1 4.5714973632413765 11.665471345388138 4.6259859567732535 0 0 -1
2859 1 4.745473047224713 13.448862854271393 6.602120689452299 1 -1 2
3413 1 4.853466930466496 15.138244318552461 5.624716124488346 2 0 1
882 1 4.629629686281821 12.471687296306456 7.263922236735699 1 0 0
1706 1 6.60795325438166 15.472537638222997 6.511238531527473 0 1 0
1306 1 8.217916533121741 12.587224133572677 6.130385485232817 -1 -1 0
3009 1 8.582422340556398 15.581415960878394 5.756058512851295 1 0 1
1743 1 9.679552098403711 13.729718710255934 6.078234527062745 -1 -1 -1
3646 1 10.578060412671872 14.458454425088599 7.107282780375513 0 -1 0
3371 1 10.9135270256746 15.408233171817004 6.485624413707709 0 0 0
872 1 0.3023321093876208 15.128652447158673 6.085863596135487 0 -1 -1
255 1 0.30124652038706423 16.10661601096237 6.5160571790222255 -1 -1 -1
2799 1 2.782328298963758 16.245044342305718 7.343204696556892 1 0 2
3164 1 1.7419967090673065 17.54362716307952 5.988238200270827 0 0 0
2636 1 2.7615109245656284 15.74799481552319 8.365782276322543 0 0 0
1405 1 3.7547319501807968 15.472863392494505 6.894921326031453 -1 0 -1
3509 1 4.825903410681086 14.581455565814204 6.684551484172646 0 -1 1
1799 1 5.338024777642893 15.608610420910031 6.374800059239553 -1 -1 0
3333 1 5.179353455691946 16.39699108048761 5.794627028618148 -1 -1 0
3357 1 5.970285675649422 15.347971118970966 5.654399089536553 -1 -1 1
3383 1 5.445285916492581 15.841733472821454 4.7687829744003905 -1 0 1
14 1 6.482389559753747 15.961800851095544 4.94802087381555 -1 0 -1
2918 1 6.7518563967651986 16.475852688049017 6.00431994591358 -1 -1 -1
2705 1 7.869479502045598 14.187151636504032 6.080909683316976 0 0 0
3757 1 10.264212803190661 16.7509555347378 5.359286457753639 0 0 0
693 1 9.03253576779885 16.232694854169793 6.531164736726302 -1 0 0
3024 1 10.24278612882163 16.251621194523494 6.329352378207355 1 0 0
3715 1 9.573950193792118 15.358100168161036 7.1009043816834225 0 0 -1
1161 1 10.738407270747532 17.74344071147069 6.815813335992852 -2 0 0
2103 1 0.2116158318258905 18.541328737064227 6.0867973153083215 -1 -1 1
2598 1 0.5172097352035827 17.997343699003537 4.211366512742565 -1 0 1
2098 1 11.108228734587216 16.76938526016687 6.725880593148782 -1 -1 0
371 1 0.8120215237882709 17.633458268023404 5.307312304984546 0 0 0
3322 1 2.2884296782424034 18.9652580052717 5.1488601241851 0 -1 1
2671 1 3.32226471205826 17.49854591486031 5.794017990394121 1 0 0
250 1 3.354301345476932 17.247374111687265 4.743471928055631 -2 -1 0
1959 1 4.908307241812269 18.259568651195607 7.105001859993983 -1 0 1
3270 1 3.8045344590570718 16.678544026188995 6.722087617635863 1 -1 1
234 1 2.8617019966818167 18.42745396971683 6.125144772789307 1 -1 -1
147 1 6.09313432551343 16.860707261449896 5.281435635673912 0 0 0
1827 1 7.476991014776299 17.877468318004745 6.031104492027053 -1 -1 0
2935 1 8.802076446740486 16.663465712572922 5.4745127486665535 -1 -1 1
365 1 9.667858006316083 17.102535192000687 6.173616822484981 1 0 0
3227 1 10.960563986513222 18.93377342572481 6.28223337242247 0 -1 1
919 1 9.051733016463585 18.852321170961922 6.335935367394859 0 0 -1
1012 1 11.28372776343414 17.11843193049404 5.67184976817252 -2 -1 0
7 1 -0.28491940793008386 17.202818541797285 8.497415468316664 0 -1 -1
2075 1 11.046164951678705 0.24788265967671763 7.813916950610448 0 0 0
2017 1 1.3238983021826431 -1.5311544583092882 5.27249878440896 0 0 0
2434 1 1.7945210384699397 18.313816024590203 6.573953348689436 2 -2 1
3075 1 2.4008121294276985 18.858318652179534 3.8895835558075147 -1 0 0
819 1 1.4745694995617749 19.125240983728027 6.1207088327279 0 0 0
3339 1 2.9916291589667185 -0.42422508435816764 6.467614129250602 1 0 1
2282 1 4.50589585216009 19.39408279440942 6.658746106848728 -1 -1 1
762 1 4.068351235402226 18.728634958389826 6.046707843355761 -1 0 0
1762 1 7.176516938055526 18.9736983903625 5.709178573104893 0 -1 0
512 1 5.243240071426629 18.63423334644873 5.989018279074153 1 0 -1
2082 1 7.443871376953222 0.07213383457844458 4.237315027763097 0 -1 1
1266 1 8.839505370801806 19.427034167763175 4.226208373049321 1 -1 0
443 1 8.217987994265632 19.620582049564938 5.814368798664805 1 -1 0
1338 1 9.4834682208613 17.98842059780832 5.778362731238864 -1 0 -1
1313 1 9.894223743608956 19.70003118268952 4.685743755420276 0 -1 0
733 1 10.0286891450566 19.2267042252476 6.144459872208651 -2 0 0
2055 1 -0.2948196521315616 18.851146742360612 3.9720768399002404 1 -1 0
2304 1 9.881664987968673 18.3818014286774 6.784465039688314 0 -1 1
3501 1 1.6327304559877232 -1.19555925917355 7.377521991343073 1 1 0
1718 1 1.614610635462439 0.03563881196692953 7.9407497073768845 2 0 1
799 1 0.8965185401696905 -0.6071795704998242 7.957795082491057 2 1 0
1436 1 2.791834811388164 -1.199836508334405 8.413584129237954 -1 1 0
1433 1 0.2718832315607944 0.2965873278935398 7.290621018460726 -1 0 -1
983 1 2.190081641954519 -0.45658137873046356 8.977251802885817 0 0 0
1584 1 3.4932767218866525 -1.127404589544633 6.933661707962846 0 1 0
2275 1 4.977210404223834 -1.2733191297752502 8.197490738550936 0 1 0
3028 1 6.361325400531757 -1.2710270311843201 7.530638151664073 2 0 0
2871 1 6.62610910176633 0.21832410970589167 7.807753831122234 -1 0 0
2312 1 7.6662248364048775 0.28366953845768683 7.955340946483636 1 1 0
166 1 8.293669813743948 -0.8926152357591209 7.34422917744798 -1 0 -1
2271 1 8.45760431884098 1.0270307416313167 7.744624482197722 0 0 1
1501 1 8.831995422101738 -0.26343078142319265 6.62959657639372 1 0 0
167 1 -0.544317044144731 -1.3751874182308954 7.825656304976956 0 1 -1
939 1 10.769416763994647 -0.5564850979525695 7.2777220618874345 -1 1 -1
3835 1 0.4603426630857397 19.663860916219484 8.043874663495664 1 0 1
2738 1 1.1069998751848993 1.2350307006519485 8.385685680062455 0 1 0
3544 1 -0.4277031029705512 0.6650726334603987 6.470016937466662 1 1 0
2897 1 -0.31597858507076004 -0.18207520981533687 8.037547434055213 0 0 1
1953 1 0.5912702527705063 2.0152328515919904 9.03488698096343 1 0 0
2695 1 2.8920222623058134 0.3381068248040835 8.320093025322292 -1 0 0
3345 1 2.3455512525735025 0.5617787858287087 6.131647932890154 0 1 0
1439 1 1.8512387504179992 0.46183865060482443 8.906919123303078 1 0 0
2602 1 3.5619629189520925 0.7710612598104505 7.593375529529414 0 0 0
1583 1 3.4837928340547526 -0.23826514196049287 7.605304147588598 0 2 -1
3805 1 4.544874308078909 1.297114153696826 6.983869436265133 0 0 0
1708 1 4.744678068112572 0.4557427322378902 9.419803799848745 2 0 0
1656 1 4.13806074247266 0.24621797363066467 6.741211394221651 1 0 0
2233 1 4.501414760349377 0.1324891402537971 7.906067791318087 0 -1 0
1506 1 6.46924906811812 1.4511039542839916 7.765637094648417 0 0 -1
2778 1 7.216323773346938 0.8746612192808962 7.151377731305175 -1 0 0
1655 1 6.956505735827551 -0.6311284766062223 9.954087029507026 -1 0 -1
3601 1 6.1125132438510335 0.4147065837045396 6.791439088501516 2 0 0
3641 1 10.274996057200674 -0.11378160285492078 8.346408138373087 -1 0 1
2813 1 8.090333113245906 0.679586275813902 8.76187007262508 -1 0 0
3408 1 9.8147609605839 1.1489081954379459 7.758934195000272 -1 1 1
252 1 10.925463700997081 1.374006851491997 8.083524267473715 -3 0 0
1438 1 -0.5410562307636708 1.7244467786425033 8.87928712732534 1 1 1
742 1 0.056997750687155624 0.7733194317773253 8.234969984614686 0 1 -1
1079 1 0.18743391139933463 2.7418393391023246 6.98588547085493 1 0 0
1187 1 1.1285814040117037 2.1971458222452673 7.423889035994087 0 1 0
2448 1 3.779253984786484 1.7273236828259955 7.470779803111093 -1 0 0
3971 1 2.1852204990139876 2.149252516009488 7.02985878296356 1 1 0
809 1 3.812053176712152 -0.03850967160025176 8.887217140748144 0 -1 1
3286 1 3.6689972991901634 1.0240009446582605 8.595571532218598 -1 1 1
1403 1 4.443152264635701 2.5190410396186147 7.446429188406125 1 1 0
3873 1 5.115271423883377 2.1544118285685983 8.674005687725742 1 0 0
3372 1 5.711434610565851 2.536323648634192 7.7909926913075065 -1 0 0
1203 1 4.275808210076147 3.553871619937249 7.753675668443655 0 0 0
3219 1 5.522489173696259 3.2996879806382626 8.443577725368874 -2 0 1
3586 1 7.591150401794428 2.3799870362367597 9.248963534382346 1 2 0
2964 1 7.723654729807169 3.012376202633404 8.159558333819811 -1 1 0
1958 1 8.826084844795448 2.003180686019746 7.783952798934445 0 0 0
3532 1 9.886603837163271 0.31771883501897946 7.1749638720304 -3 0 0
407 1 10.08318738272662 1.1628865250573797 8.813479490439798 0 1 -1
2814 1 10.30554416852625 2.1611240155362306 7.5074581167435195 -1 1 0
3726 1 8.680813045973578 2.609151797057079 8.80973295568999 -1 0 0
3490 1 10.905638463172826 1.7141970855784576 6.603558052211314 -1 1 0
2904 1 -0.30216600793994286 3.7573986243252593 6.681273743703253 1 0 1
3961 1 -0.07146348448055284 2.7825799745076703 8.700973571196801 0 0 1
3115 1 1.963039500634833 4.82670690820731 6.823275516256311 -2 0 0
1428 1 -0.25383235520523173 3.495817890274984 7.906592470679239 2 0 0
2238 1 2.608069581084887 2.5217537905779803 8.555046851760071 2 1 1
3902 1 2.6901396839563483 4.705128938783977 7.899584866058531 -2 0 1
699 1 1.4349086552501986 3.921027077233436 8.704051527365909 1 1 -1
3310 1 4.8230402112240665 0.944657550930339 8.592053715064573 0 1 0
1766 1 5.03504756401964 3.690947761134926 9.89851269140398 0 1 1
3237 1 4.5479555915733085 3.2860644306001854 8.810254500005561 2 0 1
1935 1 6.581694055398258 3.1940516189408106 8.80663477303986 0 1 0
3149 1 6.953618087177739 2.2841032809719843 8.343677005464883 -1 0 1
3797 1 9.928888244600818 3.550510804378672 6.963734742460403 0 0 0
2821 1 6.12989678265481 4.084553839439698 6.7344288464445174 -3 -1 1
2974 1 8.018572542417289 3.9241466076886793 7.578769466118921 -2 0 1
3465 1 9.531940307673379 2.5954135588658636 9.764886253463054 1 1 1
1507 1 9.200302611387782 2.915442624972571 7.3802118346129415 1 0 0
3711 1 0.19082217498322218 1.8249900691384453 8.05485292567532 0 1 1
3609 1 2.1556557854841576 3.6716465787910106 7.533432176529475 -2 0 0
1418 1 9.965699540048073 4.445131986798227 7.512048212211763 0 1 -1
3125 1 -0.535030334736696 5.047156826668838 7.375424865197388 0 1 0
3426 1 0.768131104861584 3.9921743395051665 9.483657980061219 0 0 0
1665 1 3.758070135826145 5.35301311732505 10.2065847527518 0 0 0
3541 1 2.9170867646745964 4.488436984291754 9.400782416297048 0 0 0
3437 1 2.4370604980130044 3.702885220649825 8.662132577604739 0 0 0
2115 1 3.9198275223122074 3.7944762067707574 9.870515658528314 0 0 1
3262 1 4.670237259899497 4.361250659836162 9.081395329609325 -2 -1 0
90 1 6.113825523642492 5.326103542300213 6.820665696160443 -1 0 0
458 1 6.115227007520188 4.224343633261134 8.60060297818076 0 0 -1
2331 1 8.797674454367717 3.7147210065791425 8.503429479400573 0 1 -1
474 1 8.260542992839689 4.512028302728936 6.77084731609002 1 0 1
1629 1 8.343669307685767 5.19828467715357 8.522027806993163 0 0 0
96 1 7.032340877563297 4.058882356871402 8.034288248019413 0 0 -1
1150 1 8.876876645528052 5.431175276087041 7.68324100444598 1 0 -1
1038 1 9.078274572660277 3.6090503430171763 6.276665850167391 0 0 0
2109 1 9.06243554070547 3.8801369870043656 7.3578527259574145 0 -1 -1
3992 1 10.526649643755361 5.856902086048062 8.655569835389137 -1 0 0
334 1 0.9197727354953384 4.403848995020642 6.712828862458231 -1 0 -1
2221 1 11.208242357472813 3.941042750295499 8.373190112905583 -1 0 1
2431 1 -0.7554821323790031 5.002457104807774 6.3230227338137155 -1 0 0
3913 1 0.381653480007631 7.168210950857281 9.716719136577892 1 0 1
2752 1 11.154351117507947 6.513337111664864 7.437203920783947 0 1 0
3059 1 2.2463725361526197 6.292052302060149 9.50819975968956 1 0 1
1417 1 -0.18276146343235844 6.9773268639334045 7.724814855055291 0 0 0
821 1 -0.2729060720131865 6.863891309217271 8.770862198244197 1 0 1
265 1 3.5913354628163967 6.30412805748684 7.419558878063674 1 0 0
1905 1 5.672704918515748 7.015695958778954 9.18690053910064 0 1 0
1495 1 5.162187795784387 6.90861719670688 7.934624335281001 1 0 0
3536 1 6.042865519190888 5.891185279323839 8.610118183498441 -1 1 0
1841 1 5.402221682993224 5.0667178937088755 8.23443895061357 0 1 1
18 1 7.944131625417597 5.925408302051867 7.712299709374479 2 0 -1
2542 1 7.819521923528299 7.236004994881551 8.101442927374446 -1 0 0
3265 1 9.695927523227484 5.7590917894897675 9.321067100112831 0 -1 1
3141 1 9.709944206189899 6.535139445716364 6.789847642529844 -1 0 -1
203 1 10.001984800895805 6.8988947134741245 9.066429599458163 -1 0 0
1037 1 9.23383433735541 4.590761893710302 8.762040971643234 0 1 0
1564 1 10.537712206130907 5.011091832526022 6.199629841444711 0 1 -1
2482 1 9.708773069146917 6.744270858658712 7.992615824888084 0 0 1
739 1 2.013459765240889 7.536405465516479 7.536563866508619 1 1 1
157 1 1.3645001435797894 8.068822002392432 5.628960461093632 0 1 -1
269 1 0.894388359372208 7.262153329898771 7.520939639534809 -2 0 0
3548 1 2.111709812473315 10.389776434109416 7.218957469364099 0 0 0
1674 1 1.398704824944419 7.823691197472808 8.424741353034769 2 0 0
2419 1 1.338414885660129 6.134030526709529 8.906755212100968 0 0 0
1966 1 1.933170161659186 6.9066730978902005 8.336831379689665 -2 0 0
912 1 4.81361491513021 7.005376629344546 6.9506533059042415 2 0 0
1013 1 5.944073273093826 8.443406917348296 6.419506125536627 -1 0 -1
1311 1 6.080984169176018 7.670625770111204 7.234696489957578 1 1 1
2698 1 6.269794276887944 9.519241019892702 9.038000815556648 0 1 -1
3471 1 7.763648549089268 6.29083085729174 8.686549041972551 0 0 0
3936 1 6.9921456869124405 8.694384183856634 9.1433354898359 -3 1 0
3466 1 11.00214062723709 7.477774149661757 7.707661638409025 -1 1 1
1078 1 8.750889325214848 7.382953589289523 8.60748466070515 0 0 0
831 1 9.580539463456743 9.23471606540521 8.632685266919916 1 0 0
2930 1 9.975852518939746 8.121023406048845 9.127795496368426 -1 -1 0
3324 1 11.03002758924993 8.228136308516179 8.34312695329152 0 -2 0
43 1 -0.3886905172624759 7.972200949430551 8.89047034204562 2 -1 -1
436 1 1.149539930424067 9.276284371386804 6.570422901804756 1 0 0
3561 1 11.433393075172837 10.23192591019049 8.250669654167961 0 0 0
1099 1 1.8301430589284635 8.442490105775345 6.570987996626396 0 0 -1
2502 1 1.288017763183602 8.431524413433834 7.61106540856273 1 -1 -1
2000 1 0.9985144075497925 10.78600104681735 8.158157270908626 3 1 0
868 1 0.8539836112485613 6.375384007691726 6.779554624366927 1 0 1
1293 1 0.621728890351338 10.127236488782229 6.562639900441944 -2 -1 0
2400 1 3.0635218452313158 7.111305458949042 8.750560774817153 0 1 0
869 1 4.810324777964122 7.573223050316415 8.966450401161165 0 0 -1
2119 1 4.917941403153272 8.204242484240066 6.684553171325222 0 0 0
1259 1 4.700417203399265 8.585167329367017 8.51061686392173 1 0 0
3817 1 7.679205815192043 9.768605603179122 8.035075342647229 0 0 0
2635 1 8.898274208488273 9.375703774810441 9.661223373584063 0 0 0
3630 1 9.198985617469575 10.449867414528859 8.074414786813971 -1 0 0
2053 1 9.350871612751131 8.581078019596292 4.820752844854918 -1 0 -1
2198 1 10.937797286923823 8.30785202937986 9.401039535629305 0 0 0
672 1 -0.6294472729408355 9.359853657685852 7.823083119154113 3 -1 0
2272 1 0.11418021751403384 9.090348725406692 7.191108264763493 1 0 -1
1093 1 -0.8576645044487454 11.16070623090486 6.630730296339177 0 0 1
3813 1 0.2702854202319671 10.110999886289877 7.939511836912098 0 -1 0
1811 1 1.9658532822936698 10.903437320741833 8.57942825266679 1 0 0
1180 1 1.3285115964806402 10.980083635019994 6.651201605817571 2 1 0
3535 1 4.545987509563219 11.983200897206391 9.478203774075526 -1 0 0
3571 1 3.6563289290867163 12.105133240438024 8.97697990897123 0 1 -1
3707 1 5.097040286679258 10.79430690270692 8.228921786238242 1 0 1
3724 1 4.120705573509264 9.391895045128534 8.39688381859948 0 -1 2
1676 1 4.688998226825207 10.472830524522347 9.130933545782014 2 0 0
2997 1 6.122151203558977 10.540260499424939 8.28055393745788 1 0 0
2946 1 7.301300076970758 9.968703537311328 8.922717289861126 1 -1 0
1982 1 8.452113911328595 10.014801424451003 8.781390026661539 1 0 1
2992 1 6.212712501328243 13.64964319436448 8.495344720604129 -1 1 0
420 1 8.906109818305158 11.28917046573795 6.0869355123851125 -1 -1 -1
1627 1 8.290676154724219 12.765965172802902 8.283609821199212 0 -1 -1
3618 1 10.627692033209206 10.216751935546487 7.145767893024884 0 0 1
1728 1 7.60725301894581 10.91996078553218 8.397967131264599 -1 0 0
915 1 7.4207764569588495 12.170741800208923 7.795771011772331 0 0 0
3552 1 9.323351076727093 11.399371586995235 8.365983152715545 -1 1 1
2694 1 10.183238261713234 10.749497106249757 7.911083826088269 -1 1 1
55 1 -0.7457693351779899 13.13755773132747 6.831879721527553 -1 -1 0
3100 1 10.435223590178984 11.640913443481718 7.455721647396468 -1 0 -1
2368 1 2.6403898007153432 11.913734280258732 9.759131883900046 1 1 0
2381 1 -0.755995002277793 12.122142983995024 7.67357650649736 0 0 0
3816 1 2.780179519599946 13.126295240257438 8.121738190726814 0 -1 0
2463 1 2.5767086598737317 11.71210706474998 8.328544376905922 -2 0 0
464 1 3.9325201791311173 10.646451370916003 9.941762281707543 -1 0 -1
2297 1 4.973762683796158 12.032043767837369 8.553313081728943 0 -1 1
168 1 5.437518043962504 11.361443350747694 9.639400424466437 -1 -1 -1
91 1 5.205699617365251 13.16879447926326 8.21656278327387 1 0 0
2618 1 6.821433696612544 11.27313163496463 7.747535141014538 0 0 0
2241 1 5.9710335397933685 11.99250398529317 7.455217995846999 -1 0 1
1648 1 6.359900451383472 12.97778483509542 7.409334991709507 -2 0 0
392 1 7.740602105850831 14.481412432474743 7.151891412823938 1 1 -1
3743 1 7.277302163730889 12.308264603044409 6.712153849977943 -3 0 0
3649 1 7.318343486535969 13.341072091874214 7.73007915921335 1 0 0
2641 1 10.234655616913189 10.853141445387504 6.518226261320325 -2 0 1
785 1 9.061311923082668 12.176577510744478 7.764850802527732 1 0 0
2005 1 0.551047645869881 14.14241222908318 9.26253807656296 -1 -1 0
1923 1 11.38737271923029 13.79080409263697 8.773074935024475 -1 1 0
1002 1 -0.4724248640005379 14.0147562794697 9.775104693674855 1 -1 -1
1800 1 0.8893639657960695 13.501878197055332 8.118479265191986 -1 -1 0
3446 1 1.598280779002771 12.824665918762149 8.156325869583956 0 -1 1
928 1 4.279669979429874 13.094268155256822 9.110840073142645 -1 0 0
3874 1 2.8274341533691234 13.61353190208161 7.119538359708313 -1 0 0
2554 1 3.493156002783013 15.116746273454167 7.980906077880334 2 1 0
2878 1 2.567988595543999 14.650776372369025 7.517630283485278 0 0 0
2131 1 5.789226762380719 14.769436438765899 7.046954330235735 -1 -1 0
2389 1 5.802622834088315 13.810015685244313 7.362479165830258 -2 0 0
721 1 7.794666731215852 14.130229228878566 8.308202534305948 -1 0 0
1076 1 8.295252890341882 12.523263537521078 7.177531880569468 1 0 0
169 1 8.355728748571218 13.55354815326384 7.504075355352166 0 0 -1
2403 1 10.581989221927572 13.513381961372083 6.825091214644814 0 -1 -1
1069 1 10.034151386740845 15.181087359398044 8.05086270129969 1 0 -2
2257 1 10.486284665002483 12.515583194856353 6.591092889535222 1 0 0
656 1 9.671297114210637 13.819936686155504 7.283195777630379 -1 0 0
1332 1 0.8234103595105551 15.805922023461646 7.578779082764319 2 -1 0
1368 1 1.1712572692299927 14.576339838900877 8.400632334028552 1 -2 0
2094 1 -0.8098941509447672 14.590582077225653 6.394180771429338 0 0 0
3340 1 1.742703663534448 15.395259383928808 7.78205456534927 -1 1 1
2816 1 0.6633586116686778 14.352455584123266 7.468360119618197 0 -1 0
176 1 0.04017861821275792 14.282219025920838 8.263041945246128 0 0 0
119 1 2.172289129715398 14.796073861479629 8.826087869190454 1 -1 0
3020 1 1.688984553705311 14.879229307501175 9.796357021781155 -1 -1 0
3354 1 2.1212735002604144 14.417456552598324 6.529748155228601 0 0 0
1883 1 0.8641387395558129 12.967106914084246 10.168582405647191 2 0 -1
3860 1 5.455888055208656 15.27874222573015 8.47455986326002 1 0 1
3648 1 5.7623169492263875 15.866423005907192 7.550409502809563 -1 0 0
610 1 6.985024660151782 15.11977093599977 7.635492792014476 -1 1 0
2955 1 5.803688316418101 14.33466691130728 6.093259076469962 0 0 -1
1072 1 7.74908989813032 15.536348385642574 6.56693705929497 0 0 -1
574 1 8.485232408716495 16.33376647830017 8.357288527978163 -1 -2 1
2306 1 9.424711107626994 16.10424327282489 7.988034914790582 0 0 0
3432 1 -0.46353222651452397 16.214596461175027 7.244940376437981 2 0 1
1657 1 10.789624821315934 16.14111071644689 8.458673282454793 -1 -1 0
3313 1 9.802489147996926 16.1502475913409 8.91961957010051 1 0 1
238 1 -0.1500468000301115 15.431611307974945 8.118278477292167 2 0 0
1710 1 0.08126045638529777 17.182234775351972 7.4100727440116465 1 0 1
3849 1 1.135038045743317 16.942266365188253 7.653730429174859 0 0 1
2551 1 2.787586602475282 17.16759235539852 9.044809052331535 1 -1 1
964 1 3.8082323343506195 17.085817366592437 10.435985498720177 -1 0 0
1858 1 4.858438907663188 16.695367322980097 8.641044780755493 1 -1 -1
3480 1 3.734618069667465 15.725565072171191 8.860649918441307 1 -1 1
3931 1 7.1620792510557685 15.8823539387878 8.466132769487913 1 0 1
1962 1 3.9754583211448846 17.23258185741976 8.870795248391465 -1 0 -1
2679 1 6.773904871392423 16.277874803180396 7.255744178728705 -1 0 0
643 1 4.906546007991121 15.635073555522736 9.25363018655963 0 0 0
2023 1 7.669706440831963 16.596454951316503 9.077780946584703 2 0 1
3697 1 8.664763799345963 17.547312632358555 6.446334462673597 0 -1 -1
46 1 7.66611144669827 16.501270700327446 7.681753041043558 -1 0 -1
3828 1 8.717696375941218 19.27072266799177 7.572647099769032 -1 0 0
1926 1 7.9502905148401695 16.611472419188054 6.4911820106441 1 0 0
134 1 10.240141148731466 16.618028964179942 7.54827205890051 0 0 -1
322 1 8.97497645569473 17.470442907174743 8.381579421332292 -3 1 -1
3192 1 0.32717757874371944 15.205150123201223 9.073839192616848 1 0 1
3081 1 -0.10898940844558225 18.09242825005773 7.919884784458622 1 0 1
1753 1 -0.501915160168237 16.204990679341485 8.884952480421772 0 0 -1
3185 1 0.9514306226303062 17.380435500303896 6.725323489183273 0 0 0
3156 1 3.1990257597039076 17.743653123201973 7.251585510977373 0 1 0
589 1 1.055591232868731 19.242043391264076 7.041894778892553 1 0 -1
3776 1 2.805509616914869 17.105895554164555 6.589883462012429 -1 0 1
2393 1 4.072813155048806 18.119821862732046 7.951717082632976 0 1 0
298 1 3.472249947799458 16.773106004524145 8.008506717986322 0 0 -1
394 1 1.9780432914440187 17.19557540316947 7.196269245005086 0 1 0
79 1 4.020934308767599 17.862713696143437 6.661696384743722 2 -1 -1
3225 1 5.895606233645371 16.521582094525073 6.734493019263859 0 0 1
2181 1 5.884966042452845 16.96030481644779 7.8294129611406245 1 -1 0
2025 1 6.365033344054497 18.56532650978481 6.368577297964853 -1 -1 -1
1179 1 6.7266982361976595 17.30564841340157 7.018091790979625 1 1 0
1532 1 7.925257038296838 18.812830413177096 7.0455744114737815 2 1 -1
1664 1 10.141503308513045 18.57151787750562 4.725694781263494 1 0 0
3000 1 9.547531123556348 17.709962727473076 7.468182383489108 1 -1 0
3825 1 10.63487818020675 17.876814129744496 7.776079885876545 1 0 1
191 1 8.461464273019946 17.9199269980099 7.498644303429872 1 0 -1
838 1 11.331901012108458 17.015034878462004 7.719430613168685 -1 0 -1
1775 1 0.23066365663524713 18.52037137487195 5.02247983662018 2 0 0
1222 1 -0.5637099985268195 17.850925358989507 6.493943347116399 1 -1 0
1661 1 -0.24518263685271557 18.87369561819471 7.033535269909709 0 -1 -1
1084 1 2.527666269296831 18.545807454265052 7.423163726472813 0 0 0
1408 1 1.7439741445268262 -1.310918805592971 8.479739973736043 0 1 0
3306 1 0.4099310181820601 19.58089984603125 6.273083392975532 0 -1 -1
1496 1 3.2833361086056154 19.09734039932112 8.160179730812692 0 0 0
3123 1 2.456290609093644 19.437855626297853 6.354559896641183 0 0 -1
631 1 4.2863800205374805 17.255053042751378 7.509861776398042 0 -1 0
2921 1 3.559961305238355 18.935493828611662 6.951053381821589 2 0 0
2725 1 7.667399239251569 19.56317847460273 7.9494257055671245 -2 0 0
2640 1 5.396615546070157 19.170674199432995 7.218402922051638 1 0 0
1181 1 5.352413027111214 18.903142865214484 8.507844421294399 -1 -1 -1
584 1 5.882262306316923 17.479028165702594 6.379962731323622 1 0 -1
1748 1 9.883981518265964 19.482257074460698 7.373002053548037 -1 -2 0
3118 1 7.669658793567686 -1.5321527385270954 6.693368634684754 0 1 -1
2703 1 9.549747827942653 -0.7232264384382179 7.542076030867092 -1 -1 0
3920 1 -0.6909454034630982 19.575613338071584 5.9271594957912335 1 0 0
84 1 0.38756559353660847 0.47706508910765955 10.21569030274954 -2 1 -2
684 1 -0.13103567452896736 -1.3036837034364532 8.861917862833332 0 1 -1
3738 1 0.9023042294528298 0.219423034984223 8.721866317371354 -1 0 0
3131 1 1.3909041692706543 -0.3038957314371822 10.854709029486482 -1 0 0
599 1 0.31270710765881615 -0.6422306402833183 10.188988564811611 0 0 -1
896 1 2.4408985854280205 19.67401319556287 9.287178223099628 2 -1 0
2108 1 1.3136695443817223 -0.04685719978433678 9.660682395746178 2 0 0
20 1 2.284478727211058 -0.9910549383242955 10.483353679110008 0 0 -1
853 1 3.352035214666092 -0.8903602104462232 9.412956964538825 1 0 0
3159 1 4.060961144690618 19.221184899311687 11.288364426556543 1 0 0
3675 1 5.015008401355135 -0.31190955883035687 8.750142875725963 2 0 1
2218 1 3.788748180774183 -1.148128150761647 8.471509328251821 -1 0 0
1003 1 6.19297646066346 -0.4782863158288939 8.35318587603844 -1 1 -1
1517 1 7.291163566925352 -0.7244710841297051 7.4407452759042485 2 1 0
351 1 7.773323548703123 -0.940946800793373 8.625576479094208 0 0 -1
1404 1 9.759731654231759 -0.8435247204973382 9.19252800981674 -1 0 1
1466 1 7.918414075439982 1.2791679073862614 9.576633376512907 1 1 1
1362 1 8.90036089995244 -1.0314194853618828 9.615218683479057 -1 1 -1
409 1 7.939284782645746 -0.17146967690634662 9.42549180780864 0 0 0
2999 1 8.734656042524703 19.69288410853396 8.497987807573077 -1 -1 1
2663 1 10.559052087945606 19.762351645465223 7.942582775486448 1 0 0
383 1 1.3557088025322468 19.284188859739707 9.135315537927742 0 0 -1
1825 1 0.31150878859584474 0.9557086226960188 9.277104022103687 1 1 1
2701 1 11.19910202104108 -0.9052775393518222 8.601601016904851 -2 1 0
622 1 9.806726073937067 19.452350953366384 8.883139152925546 0 0 -1
2239 1 1.3584725160788809 1.1618916084194173 9.653274033179542 0 0 0
2319 1 11.302670188271343 0.25253304572573865 8.892971651690177 -1 1 0
3453 1 1.929794479684304 1.9712413178293122 9.063304127105392 2 1 0
1096 1 2.337475135983833 0.37412534091523697 9.990267323028181 1 1 0
1717 1 3.083991453607038 -0.463524443768603 10.42524467901921 2 -1 0
3896 1 6.288316360267453 0.2766465293311424 9.101009974158996 2 1 0
2915 1 5.809697435375248 1.1694615643262494 9.319132837814646 2 -1 0
1779 1 6.369019405897811 0.019566441277514945 10.431700387274606 1 0 0
1952 1 6.993569340424702 0.4763256445306121 9.711100304299254 0 1 0
3496 1 8.587202927261679 2.0915577727099115 9.8098591626054 -1 1 1
3898 1 8.037453232655967 1.645070518303279 8.493265817426524 -2 2 1
1700 1 9.023083878910564 0.12849071312994265 7.718527585042839 1 0 0
759 1 8.943368291431527 0.40649729958493896 9.6274575815703 2 1 -1
3566 1 -0.5550199951937294 1.3190582251605423 9.871827146111134 -1 0 -1
2451 1 11.421619156584926 19.365632437092543 9.384105860726102 -1 -1 1
569 1 8.94730388501209 1.4600136516181106 9.012079894278601 0 0 0
3245 1 1.6791653758768574 1.2018710878939651 7.316994026884462 0 1 0
3557 1 1.1716422798598498 2.2937720464646856 10.097536172350832 2 0 -1
451 1 -0.05819398740277437 2.4001130377714914 9.702931394285391 1 0 1
3721 1 0.192870580135589 3.2524111910704336 10.226208983933656 2 0 0
327 1 2.645706619692898 1.4026135298285731 8.032334428370294 0 1 -1
2412 1 1.6623164173883982 2.813832360535902 8.365069539603889 -2 -2 1
1724 1 2.7578532638952713 1.1329116733653795 9.229423976456813 0 -1 1
3377 1 2.958186013361625 2.6208279751565495 9.653374636354698 1 1 0
1726 1 3.6226764639572853 2.914671147583298 8.318826795828894 1 0 0
427 1 5.476185329037069 2.814458833923135 9.526807834888066 1 0 -1
29 1 4.801908071172776 0.9258286705942829 10.377938875238994 2 -1 0
2104 1 5.612718385987097 1.5268876284487503 7.282097950008211 0 0 0
99 1 5.987620251423623 0.9898385075126965 10.390556754061986 -1 1 -1
247 1 6.118006775931118 2.134282060398618 8.747885052004191 1 1 0
23 1 7.582570923412069 2.095693738911603 10.200484376413364 0 0 -1
1146 1 6.824353182413751 1.598639581364357 9.51674539353625 -1 0 -2
2288 1 7.222206800258753 3.2110981635795586 9.835503519807391 -1 2 0
2276 1 9.640059756518847 2.0329867313415457 8.371105757787408 -1 0 0
3722 1 11.302586999361392 2.5134242772139777 9.60895598769126 -2 0 0
2807 1 10.586984605933285 2.178632537750644 8.845366918014637 -2 0 1
1941 1 9.30939064055542 0.5680635973718746 8.62871695448588 -1 1 0
2211 1 10.775296617145816 1.9665112384427887 10.755288588171966 0 1 0
931 1 11.385562359451132 5.2276955241789915 8.522782275790911 -1 0 -1
727 1 -0.7119060832620765 3.3541094681757846 9.180603608425185 1 1 -1
3438 1 1.0678318078574522 3.0608568496780686 9.228866012631029 1 0 -1
999 1 2.2022785658499537 2.70934853549004 10.634316428394444 1 0 1
901 1 -0.10437399909407075 4.320104283661018 8.664895912125557 1 0 0
3112 1 3.603276244055908 2.052574506769173 9.087387265618299 0 0 1
1396 1 2.5841346821383673 3.810528153569578 10.403147090545117 1 0 0
1719 1 4.33570660132182 1.3432861090963075 9.494320874732946 -1 0 0
3097 1 3.4824835759015604 3.2189116929031982 10.638749825853603 0 0 0
2283 1 5.07170665039931 2.7198434904691036 10.719555387373571 -1 1 1
985 1 6.362913995854145 2.440528946090196 9.872223328895462 0 1 0
1947 1 6.162303255090968 3.518943239322608 10.01131322736052 -2 -1 0
3181 1 6.345820923311616 4.435899896500841 10.684355611269222 2 1 1
3051 1 7.946649838897308 2.987240957768984 10.585205260353138 1 0 1
2843 1 7.031279517249328 3.613348111087781 10.893704352807603 -1 0 0
2928 1 9.493259352563088 3.9577109921061187 11.409397996674358 0 1 0
2584 1 9.487043529327861 3.7455159162867444 9.498902502678481 -2 0 0
3110 1 10.127415473730192 2.5691202003817786 6.470975611335292 -2 0 0
2691 1 -0.8072434721867221 6.14129834186906 9.074038335477434 0 0 0
2995 1 0.4027060505720206 6.147624760320309 9.390272090205189 2 1 1
3547 1 2.0202678237763356 4.928902805475161 8.723321511481016 0 1 0
417 1 -0.10864098135640654 5.034451047932614 9.543923666169652 1 0 -1
1541 1 1.9721439110672083 4.216744746355586 9.698335820306083 -1 1 -1
2795 1 3.1686267565560255 4.587171474856941 10.462038621453868 1 1 0
724 1 4.068479905406763 3.935027512564874 10.971220215541083 -2 1 1
1733 1 4.337161596211285 2.843539257320349 9.813836930685998 -1 0 0
2556 1 4.190404531215791 2.240754366318464 11.916227762237597 1 1 0
688 1 5.720072217546188 4.345058757094961 9.537289087665894 1 0 0
242 1 6.9798250181250845 4.278050381816405 9.82727962693781 0 0 -1
1412 1 7.818641147374473 4.1774570838516825 8.938260698400157 2 0 0
1845 1 7.980586699209002 4.056928591125603 10.126613783503577 -2 1 0
3459 1 8.63078689433247 4.411481834374629 9.586479047968652 0 0 0
3418 1 10.775165622153866 3.3170630363231215 7.626743521028507 0 0 1
3937 1 10.376423769492739 4.452161581396915 8.776939197397928 0 1 1
1593 1 9.812380202600558 3.324352156921443 8.246645243151615 -1 0 0
145 1 11.34639677510346 4.493073019842402 9.295318581032806 -2 0 0
206 1 1.2899724277673337 6.737242808354171 10.126010481511413 0 0 -1
3264 1 0.17248111588221615 6.091110444063954 8.22580818203522 2 0 0
3514 1 1.2761293477706723 6.142032901024156 7.620521844248909 0 0 0
2720 1 2.945164872944152 6.975154550935574 9.967234054511076 2 0 1
2769 1 2.2270110114498767 7.12441303465474 10.678172290378528 -1 1 0
3700 1 3.190889521004557 6.196385322042656 9.204480846066254 0 0 1
342 1 3.4836298911096577 5.411136946083362 8.274302069636725 -2 0 0
2567 1 3.8546248278175854 6.424507918183802 10.034537509237149 1 0 0
3787 1 4.566765567492551 5.724912435858505 7.960903472999856 0 0 0
302 1 4.824930610488158 6.354264415667258 9.007985571733169 1 0 0
1142 1 6.39673720598833 5.051572812004338 9.103051576821168 -1 0 1
1960 1 6.405985155280031 5.757551786537417 11.084480886059584 0 1 0
345 1 7.335035513513679 5.241422676912611 8.906287573467003 -1 0 0
2030 1 6.875379670003529 5.508085574277328 10.21004622558633 1 -1 -1
2309 1 7.003390997599483 8.770924254681722 11.0358072486398 1 1 -1
533 1 10.535490986527618 6.293718666663945 9.712451054528735 0 0 -1
2881 1 8.623482886987578 5.633551976879371 9.444821382931284 0 -1 0
1977 1 9.339880221342092 6.550097528856682 9.98995563432974 -2 0 1
3284 1 10.34503506864964 4.736561261859159 9.902446312059615 -1 0 1
3682 1 0.15485919403806303 7.3150519709117585 11.003621218005186 0 0 0
2320 1 1.1749577677181633 9.94954545489581 8.953121698769097 2 0 0
2525 1 -0.16697343336628467 8.388455181560868 11.487372715335963 -1 -2 0
2474 1 0.5023595233427065 8.357980421874077 8.420650716906827 0 -1 -1
3664 1 2.7221808690025684 8.65402934836942 8.769514046377102 0 -1 1
2461 1 4.07022659336146 7.456375906817556 9.79464245643752 0 0 1
3683 1 5.892670466853206 5.345484747650313 10.093737689555423 0 -1 0
1916 1 4.8235903331398 5.849595688575285 9.981276790768232 0 0 0
492 1 3.8533396923768573 6.412917174050401 8.459602331908796 2 0 0
3329 1 7.236110274676173 8.48727794860379 8.131404553262628 -1 1 0
787 1 5.824321042480988 6.637118254416137 10.28064305906108 0 0 0
3089 1 6.548085809698552 6.334195381998704 9.397154163338088 0 0 -1
2123 1 9.594720874312053 7.210735943736518 11.026098520809798 -1 0 0
2977 1 8.811687123684354 6.100835174279675 8.56443769088074 -1 0 1
1446 1 7.746873225932184 9.236768130426533 10.214115232886419 1 0 -1
2718 1 8.71246482075754 7.611593626863716 9.68858307811781 -1 1 1
3669 1 10.84197979246181 6.806061905699067 8.436448736386348 0 -1 1
3348 1 0.04770328263280221 8.818612287105951 9.383028620108972 1 1 0
478 1 -0.829493499926892 8.182179071295911 10.48457702113017 1 0 0
2093 1 11.434873760845916 9.308131212283973 8.957027141777337 1 0 0
2470 1 1.374781396918265 8.940369575501729 8.580045756820375 2 0 1
3908 1 2.265204706565561 7.61904367827621 6.234877869748667 2 0 0
426 1 1.9729075094397248 9.830574807609754 8.248285553558713 1 -1 -1
1077 1 3.735073293939414 8.56118213815892 8.86571084821478 0 0 1
2149 1 2.3168286801416587 10.232393772653115 9.481970309685265 -1 -1 0
399 1 1.2450283703789067 9.646595995723038 7.563261605562106 1 0 0
348 1 4.571772912815541 8.449758816642674 9.554712868621529 0 0 -1
2540 1 4.35440608507865 6.2524634617126305 6.526159906703202 -1 -1 0
139 1 6.980388028273592 7.642105628807457 8.650248119536359 0 -1 -1
2369 1 6.785794252790536 7.268084702038541 9.885520044406457 0 0 0
2888 1 5.657589578717753 8.529807560296867 9.349476736720852 -2 0 0
876 1 6.8156698950767325 9.546394619297775 10.075363637758254 0 -1 0
2615 1 7.434029230863125 8.229423981141489 10.099593203687437 -1 1 1
178 1 7.8227850117309 7.068163668673536 9.66047893967448 0 -1 -1
2682 1 9.197006649272693 10.260059944126857 9.394964851583596 0 0 0
2927 1 10.366919440442013 8.819476091183857 10.651237852798314 -2 0 -1
3917 1 -0.8162642769233623 10.517969137782545 9.575305383155133 0 1 1
2696 1 10.381664778869945 9.71879104268468 9.14992881331859 0 0 1
609 1 8.897345283510933 8.462816990749328 8.875628240262646 -1 0 0
1416 1 11.123672588624185 11.74871767606073 8.56931574091272 -1 0 1
2184 1 10.445345026828765 10.190381364527177 10.244267953607185 -1 0 -1
855 1 1.0785528458137001 8.387662909906767 9.485487272215288 3 -1 -1
2452 1 1.3861397672170352 10.240182383804262 10.038194577136991 0 0 1
2032 1 1.7232901422607552 11.2338104815687 9.623252476975052 1 0 1
233 1 2.1796642063526543 9.545904689609431 10.540811020024442 0 0 -1
3775 1 4.821793102542428 11.509829149524611 11.74447820556452 -1 0 0
3167 1 5.68456900345172 10.078308576572587 10.338211801445333 0 1 1
2487 1 6.523620070781758 10.790210359936014 10.070024009790128 -1 -1 0
3070 1 7.097734366534482 11.275588088496471 10.889218659737939 -1 -1 0
1019 1 8.218827754802485 11.428913664855514 9.887470346634782 0 -1 0
3603 1 6.7076679765751885 11.121110761996324 9.122698241335154 1 0 0
132 1 9.107307728964976 12.473699559120258 9.151627936902676 -2 0 0
2496 1 7.929138465901996 11.8523004693347 8.690348677545886 -1 0 0
752 1 9.903661322865226 9.008669216124307 9.711775357236942 -1 0 0
1475 1 9.286719877927085 11.40080905409068 9.464668777013017 0 1 0
3222 1 10.085925892735817 12.38182165469223 9.564930412537224 1 0 0
1928 1 9.996389598968335 10.76291702562421 9.056597041571317 1 1 0
489 1 0.6577562012863651 11.088994524900174 9.199094735311363 0 0 -1
3069 1 11.054011411848629 12.674014850813231 9.076658544910574 -1 -1 0
3640 1 1.0098778901415573 11.442233258089077 10.433806086985141 1 0 1
1363 1 0.4738621973609811 12.156161836410107 10.913417275101688 -1 0 0
754 1 1.699829985866649 12.270714193793975 9.821295033046946 1 0 0
335 1 2.742334996475525 11.845063410331646 10.914178815910706 1 0 -1
1578 1 2.9618835677271744 13.825753140926265 9.625569869784215 0 0 0
2499 1 3.246419644676716 12.91952317117378 9.457069549117449 -2 -1 -1
1091 1 3.2646403660475656 9.984670404738022 10.866478173690954 -2 1 -1
1608 1 5.275027255226854 12.804149287037577 9.23607996694833 0 0 0
3136 1 7.1382206727290765 12.849794730899307 8.889585575240009 0 1 0
3241 1 5.7549104635422115 10.355354129638874 9.331986123840982 1 -1 0
3273 1 7.187893610374786 13.472467189951955 10.290351347537262 1 0 0
1805 1 9.334905604339854 13.294469010528076 8.17972634225744 1 0 -1
2588 1 8.795728487814252 13.656442348489449 9.257578891620906 0 -1 1
3710 1 9.90336690412764 12.32778489047894 8.435892472825678 -1 0 0
743 1 10.864697382656567 13.577107759617949 10.123765246009224 -2 0 0
2152 1 8.246155566795753 11.422210546485472 7.78687758060523 0 -1 -1
3411 1 11.375386702951474 11.031416787920458 7.627628964197887 -1 -1 1
418 1 -0.13906821471595454 12.869708749679056 10.1864549646299 0 0 0
554 1 0.2786643030085325 14.133156017464717 11.815848460696106 1 -1 0
3066 1 0.43230928867509766 12.049383992311054 9.66739350910669 1 0 0
3373 1 1.7102297736991763 14.066105525007245 7.542173707477829 0 -1 0
2686 1 3.520840589812975 15.263619947030259 10.053647100647902 -2 0 0
372 1 2.303410697310946 12.734158245146647 9.061777261421025 1 0 -1
136 1 3.592257496167865 13.782639164339914 8.59439123314428 1 -1 -1
3425 1 4.141570743500305 13.073728350847924 10.219617055769177 1 0 1
2333 1 3.587236295633632 12.051092681083873 10.18851766951136 -1 1 0
1792 1 6.20548926742496 12.531599231729396 8.489354437810013 0 0 0
1528 1 6.000831757692148 13.33224482956594 9.818555033666218 0 0 0
3007 1 5.01796744154885 18.05155469873703 10.576503891628805 0 0 0
3642 1 4.648861271219143 13.86200461566628 7.56092461401413 0 0 0
3719 1 7.150414568892758 13.841133801247903 9.227664564974011 1 -1 0
2478 1 9.443106389829563 14.3108199077636 8.539931491214142 0 0 0
3599 1 9.16420533293037 14.342900497970634 10.172190038835648 0 1 2
3402 1 9.747597124625115 13.630642057364406 9.78976163669448 -1 0 -1
880 1 10.021182041199891 12.730724903702647 7.511573825942531 0 -1 -2
886 1 10.817309071841105 14.630612937356618 10.059163028772016 0 -1 0
606 1 11.031196338563534 15.47095556796693 7.5656752346224785 0 0 -1
3899 1 0.03455765487098161 13.952448904383276 10.689445731144962 -1 0 -1
840 1 10.395978011238926 15.383153094722273 10.570089337885669 1 0 0
679 1 2.581268532784026 14.640432916211152 10.215573027787055 -1 0 -1
3764 1 1.421273542153584 13.337926057261301 9.079513419778282 -2 0 1
2782 1 0.47866957955368616 14.871941575998287 10.004835804929014 1 0 0
1613 1 3.16032694297163 14.72457271868842 9.048252418894096 -1 0 0
1299 1 2.448023645112563 13.773956156117904 8.807422008627961 -1 -1 0
2187 1 4.349369322822952 15.922632437409815 7.940445159650389 -1 0 0
3079 1 4.689666716197714 15.99054798358035 10.292933895420402 -1 0 -1
2019 1 4.398480895833067 14.139542343266214 10.704615837111339 -1 -1 0
2325 1 5.461331279930934 14.633834207302007 9.288847041657892 -2 1 1
1108 1 5.0178274626251635 16.90762386755133 11.146254778017656 -1 0 0
3098 1 8.05563145652041 15.342811782063572 8.2460464964799 0 0 0
1028 1 6.1404701341495755 14.573832327100218 7.955923263169755 0 0 0
2147 1 8.917719027741486 14.526066343164748 7.332732669764226 0 0 0
995 1 10.823428657776574 15.664668720251813 9.710542881820308 1 0 0
2566 1 9.773345466636883 15.132113296041853 9.64817143435145 -1 -1 1
2229 1 10.634862377016116 16.21315377739964 11.772480438344173 -1 0 1
3793 1 9.745970258517175 14.984749874781853 11.236454634263323 -2 0 0
534 1 -0.14024334211243006 16.773557358752242 10.657801998822675 1 0 -1
563 1 -0.7617270601871384 15.07238081214494 9.599288287608223 -1 0 0
2861 1 0.4217182403938682 16.40987176416273 8.34718445570476 0 -1 0
1158 1 0.9391971295248458 16.981406498656263 10.731330954587033 2 0 -1
1350 1 0.942211884158654 16.53355977394073 9.394863523583682 2 0 0
508 1 1.1877029859930217 15.781650778162179 8.682621939392401 0 0 -1
3494 1 2.4680564464975934 15.740365435259092 9.56671040752849 1 0 0
1890 1 3.1419319215397223 16.22831664164731 10.218564436112704 1 1 -1
192 1 1.0969379143535274 17.44719723957646 8.75272819752405 1 0 1
746 1 4.68597029931527 14.095816370961561 8.598824808394117 0 0 -1
3863 1 6.743504097554584 15.486834873883003 9.330853023810617 1 0 1
1472 1 3.8807630790761394 16.063505326948707 11.222018584501788 0 0 0
3998 1 5.961361365338658 15.661395109461443 10.119490427493997 1 0 2
2737 1 5.756343886453371 16.280547508860543 8.718786318925368 1 0 0
1692 1 8.02751934010869 15.449844439978078 9.612412808147061 -1 0 0
1016 1 6.784413568102682 16.836704548659597 8.284455799962085 -1 -1 -1
959 1 8.900496050486353 16.824019996427936 7.462759075076937 1 0 0
2065 1 8.818098034972234 15.061223814134491 8.908489063572969 1 -1 0
3690 1 9.670290965281987 16.23819814771197 11.012030693860709 -2 0 1
624 1 0.8407049766553305 18.25739339330314 7.362468196623501 0 0 -1
3353 1 1.6455656767338307 19.153781313947896 7.86320036904427 2 0 0
1334 1 -0.024475444272205937 18.888775724856956 8.90033342364433 0 0 0
618 1 10.481747017140677 17.841248585366294 9.463145809484216 1 0 -1
2653 1 2.1075217259417744 16.58495080989421 8.141836058811139 -1 0 0
405 1 1.701788257847117 17.89837056927562 7.991430564410374 0 -1 0
2299 1 5.119561700568341 17.707221542874812 8.133308866954268 0 -1 0
849 1 3.011660929518436 17.964637085866485 8.36618125281441 -1 -1 0
3187 1 6.146185710358277 18.309367611253883 9.331919171431744 0 0 0
2952 1 5.834202474917857 18.21366545341118 7.454143358253596 0 0 0
2404 1 4.240265931147259 19.057073894588008 8.843979608782996 -1 -1 0
1102 1 6.890405386082127 19.041638002792922 9.50800610344794 0 -2 0
3625 1 6.8438093203645085 17.754662868287063 10.164320297325316 0 -1 0
2092 1 8.978252090487773 -1.3816362399142539 6.477613920591158 0 0 0
1763 1 7.266542859784954 18.093907944854287 7.606264057747593 0 0 1
1565 1 7.792733274343133 18.791171180506403 8.752034303889845 -1 0 0
3151 1 8.572471518500361 18.01322462557622 9.15774349536334 0 -1 1
2626 1 9.514961896927696 17.283583215821295 9.37802563866565 2 0 1
1745 1 10.730746451459972 16.796257352417207 9.463838433556422 -1 -1 1
951 1 10.880265475120572 14.642623522023078 8.90703550118292 -2 -1 0
497 1 -0.8009659042554992 18.100279666430296 9.054358112110178 0 -1 0
1162 1 10.642254785519606 18.798805530576395 8.846391688371474 -2 -1 0
1614 1 -0.7313182251654974 18.95290530405292 7.996876753939397 0 -1 0
2193 1 10.665665617767301 18.654283031516982 10.222593629495575 1 -2 0
918 1 0.7858255858145398 -1.0759504458961309 9.031709724969765 1 0 -1
1896 1 2.5020950743281634 19.584244015185725 7.629590199597015 0 0 0
3615 1 3.9087477029155417 19.829308140804223 10.372088683457251 -1 -1 0
488 1 2.337792288205504 18.717583289755886 8.572897141374632 1 -1 0
1151 1 4.4724944855397 19.024959618037165 7.844843012677082 0 1 -1
3195 1 5.998561583445931 -1.380078892520473 9.696945524991774 0 0 0
2561 1 6.470313995165098 19.062539455906418 8.543879293357753 -2 -1 1
1233 1 6.871036868223115 -1.3541714882250697 8.963760065160995 1 -1 0
3271 1 8.721405871802459 -0.46242827258704566 8.626080001384478 0 1 0
3886 1 8.88097984570356 18.59379346304211 8.385189630893235 -1 0 1
3218 1 9.988349322233146 17.08441283863656 8.477459549276714 -2 -1 1
1713 1 10.82727723142012 18.915500608407307 7.373949782679546 0 -1 0
3478 1 9.822983238822038 18.16857161680428 8.313653229073898 0 -1 -1
49 1 -0.7059600739291363 -1.0211790537900853 9.779183866837366 1 1 0
1376 1 -0.7381153352601062 0.10374227183919049 9.90489574075021 0 0 -1
291 1 2.1403051662068107 18.720534225694685 9.87341621956861 0 -1 -1
946 1 2.2723465301123422 -1.0893076517856142 11.89026720587246 0 1 0
2507 1 4.478187015898256 18.590935984166137 11.973970817640117 0 0 0
3893 1 2.6176641944440155 0.46141118314626595 12.569031595290202 1 0 1
3939 1 3.0855538180536195 -1.3071403601307683 11.295359710178412 0 1 0
2494 1 5.557246143559395 -0.4087399983970714 9.704949874466681 0 1 -1
1171 1 5.173581748713664 -0.08253983608239013 10.588009063357964 1 1 -1
2583 1 7.8857133287933685 -1.3995654585623434 9.588035375229728 -1 0 -1
2183 1 4.790521712705286 -1.5298055078372166 12.07896764813017 -1 1 -1
2307 1 6.550476158645697 -1.0459268695253783 10.894271006838387 -1 1 -1
3639 1 8.22703240181824 19.769739907952705 12.127558343774844 1 0 1
3337 1 7.888892337117555 -0.2054893209303834 11.614937369194177 0 0 1
803 1 7.809550626438627 0.9556859216243891 12.278333236625963 -2 0 0
2917 1 8.655237376595823 19.550286507279495 10.615859482703037 0 -1 0
3302 1 9.586638517991803 18.388817804456657 9.268865450661387 1 -1 0
1339 1 9.140801057811801 1.5666622153882854 11.680555566251845 0 1 -1
1025 1 -0.44619483681951266 19.465956135347028 10.363233891964969 1 -1 -1
1535 1 9.851408879556304 0.016613253944270046 9.994995144777736 0 0 -1
1275 1 0.0883749842596755 -0.07415180772349905 10.985009761109055 0 0 0
3923 1 1.472903235979758 0.7694556014138278 10.822454101985018 -1 1 0
1654 1 -0.8135490366410615 0.525766581117697 11.151869826743924 0 -1 -1
2207 1 0.7194440872571146 -1.4848356323571497 12.133581427660491 0 1 -1
3691 1 2.168259590594302 2.287095617190032 12.11267170234172 0 1 0
1872 1 -0.12274614754756807 -0.20066697195151373 9.100992389804672 2 0 0
2942 1 2.7970235126084484 1.4368719358763902 11.923886714363524 1 0 0
1286 1 2.9193522079997836 0.4262097290365128 10.897125480679213 1 1 0
695 1 2.7855695668872515 -0.23417235697059402 11.778099585035516 -2 1 -1
1020 1 3.5050528720781164 1.3114589390874376 11.154549190847357 0 1 0
1153 1 4.256783300240418 -0.4513524976101053 10.107272815863116 1 0 -1
2714 1 4.7107228994626835 -1.0201414023699666 11.004933905235667 1 1 -1
2260 1 6.970968371702243 1.3292223013690494 10.88472846154667 0 1 0
1369 1 4.123773659220047 0.3185389365700597 10.92777415642404 0 1 0
230 1 3.8803453739761444 -0.7779063519812389 11.638335709241563 1 0 -1
3013 1 8.046375344753104 1.721524077175034 11.145781730610512 -2 1 0
1817 1 7.890349915241002 0.4661223057423456 10.342822697146408 0 1 0
1230 1 9.659015517331525 1.0109030102326066 11.126015174915985 0 -1 -1
3200 1 8.94935808417916 0.2872154454791571 10.658324070818242 0 1 0
279 1 10.781830594755546 -0.46342965461006824 9.561469917312163 1 1 -1
3841 1 0.560329483524008 1.1436068093601177 11.390620158824163 2 0 1
215 1 1.8277530722443895 -0.20405447775678565 12.42243962258252 0 1 0
3645 1 0.9600643274663196 3.520998308706994 11.16791531718133 -1 -1 1
3513 1 1.4814458190316238 2.4648900642109974 11.264442856394037 0 0 0
2645 1 3.7620471093015935 0.6155990379756622 10.01591831726349 -1 0 0
2822 1 1.4156315343463004 3.505108503150961 10.309108093635786 0 0 -1
671 1 3.2560389706470962 1.6380785873089017 10.224902235300105 2 1 -1
2042 1 4.285608764686177 1.9574353423854882 10.64924699140432 0 0 1
370 1 5.757062001040949 1.925043275793196 10.672915569056187 -2 1 -1
2329 1 6.133367128514458 1.7039450456427394 11.61161280649912 0 0 0
3985 1 6.71542146337159 0.75487798139606 11.960329056473935 2 0 0
1774 1 8.718813154747854 2.5272688004887343 10.963934959814463 0 0 0
2277 1 6.821523639141133 2.3913985736382775 11.039974671886474 0 0 0
3869 1 9.64594712452214 1.4116834396850253 9.78105392482881 0 1 0
1682 1 10.515306823081154 2.795284711016583 10.064158925582301 0 0 0
240 1 8.68373229771589 1.2725163816823803 10.389050304233297 0 0 0
3445 1 9.996053206379477 1.2537099296242906 13.207442112898633 -1 1 1
1746 1 10.756534772082398 1.648276459386337 9.699474799752409 0 0 0
1202 1 0.4539547575620617 1.616399560104072 10.276328119820715 -1 0 0
1635 1 -0.19159962927330665 4.11745686237305 9.88682331357774 0 -1 0
2446 1 11.271794932227538 2.3809947208877036 11.795088239841895 1 0 0
1579 1 2.203955819378582 4.629932709536197 10.781436742874002 1 2 -1
729 1 -0.39248820473353413 3.357443206581215 11.969949364968427 0 1 0
3016 1 0.2075593240973337 3.017183572339235 13.475633354279584 0 0 1
914 1 1.3404950741097976 4.049747127656334 12.834981877245522 -1 0 1
2100 1 3.2646815813965606 3.8114073619844815 12.481433045976926 -1 0 1
1642 1 2.245055060671884 1.5421260872169773 10.741029549184418 1 -1 -1
2787 1 4.699588146587864 3.4377377360878683 11.551423148504421 0 0 -2
2868 1 6.330529004932492 4.76612031304667 11.650501236651408 -1 -1 0
2279 1 6.0441174500874855 3.0476665502969187 10.904333234679177 0 1 0
653 1 5.259022309918833 3.9617005417799236 10.816334136877282 0 1 -1
3323 1 8.506585391249203 4.540884700439872 11.221449312981845 0 -1 0
263 1 5.303886252177013 2.325889191066685 11.625295681412037 0 1 -2
2972 1 9.906976023273561 3.5287859625519946 10.49945320760223 -1 1 -1
595 1 8.363480406512775 3.2031800931708982 9.671579479812019 -1 1 -1
1486 1 9.725495429279325 4.598510172780204 13.111923285756133 0 1 0
442 1 10.565486081671846 3.421365124761669 9.005696512974044 -1 0 0
1372 1 -0.6869214216427514 2.726022962208284 10.546562745602952 1 0 0
1794 1 9.939930690848087 2.789430242564668 11.744240322525542 2 0 1
3565 1 11.05310386902206 3.7689151993680152 10.042140487198253 -2 0 -1
2020 1 -0.32676051869840317 6.086727157721092 10.157983369124855 1 0 0
3929 1 10.989304917167416 5.490166484397581 9.5947792274983 0 0 1
3033 1 1.1290915012114513 5.29539190792139 9.648151262430412 -1 0 1
702 1 2.9639255681433325 6.086445156859024 10.626690785468027 0 0 1
3282 1 2.916619163731423 5.2591831987627495 11.424317013792162 0 0 0
860 1 3.126146374526776 4.023593235077677 11.317940785018617 0 -1 -1
625 1 1.084331381197774 4.363762951808839 10.60561672003751 1 0 0
2926 1 3.7165860886702715 4.668155872848603 11.931715885928906 1 0 0
2230 1 4.729892659696797 6.036440165833123 11.915881525236705 1 0 0
2886 1 5.248643432220277 5.276389622121608 9.235127585548607 -2 0 0
3750 1 4.7051037140635 4.771934683088045 10.408612914856377 1 -1 0
2341 1 7.390660642835304 4.7874912734216135 10.840479498102432 0 1 -1
1544 1 6.866041419597581 4.434955954044058 12.573686757762045 0 0 -1
2437 1 9.179163768615423 4.847041399599957 12.066640230433334 1 0 1
2675 1 9.66187220682735 5.413693124871499 11.264862811078999 -1 -1 2
3384 1 10.361155709945258 4.465474778973133 11.264992619591473 -1 0 0
3277 1 10.922891125874113 5.660826827452721 10.534316733452068 1 0 0
748 1 0.7692765038911029 5.9444555269211214 10.376998482256466 1 0 -1
3006 1 1.7575463280129817 5.9420170135366295 10.441603170582455 2 0 1
2558 1 0.3865090101780262 8.409590220585827 10.59224677987029 0 1 -1
3731 1 3.0083253468466404 7.3747425843348395 12.216302466975218 -1 0 1
2808 1 4.367321056739403 7.048529916350624 11.215974869886075 0 -1 1
1695 1 4.36060844735978 5.7015882406219385 11.04517396012372 0 0 0
2240 1 4.725733237767668 4.7144717632291675 11.568989042334183 1 -1 0
3037 1 2.485003979062877 5.237464621681713 9.975507612507553 2 1 0
1696 1 5.450812874778436 6.127431275733764 11.02914496275386 1 0 1
1154 1 8.071801304962625 5.640718201392716 12.519547422733979 0 0 0
483 1 7.39572037050246 6.247508135504111 11.10566439278232 -3 -1 -1
948 1 7.810345895410904 7.382227104701872 10.612991187319333 1 0 -1
1547 1 7.9754497478251825 4.615562781034724 12.060593873729768 -1 1 -1
2925 1 8.864927943730411 3.7625615202533735 10.546717503711145 -2 0 -1
3744 1 8.252941793840046 5.118827553895112 10.243180362157883 -1 -1 1
3293 1 7.724493652693219 6.104391252349757 10.062630981672172 0 0 0
500 1 9.980326005430877 5.6933224542103344 10.334086661258343 -1 0 0
1309 1 11.192943685692386 7.100349751335031 9.453116958862308 -2 0 -1
2665 1 10.50926114690906 7.598760661506512 9.976258414366749 -1 0 0
1985 1 11.247940808186698 7.078361508099347 10.594414030296926 -1 0 -1
723 1 2.0676918422148827 8.102833785921904 11.527461938218032 0 1 0
2168 1 1.283843170577434 7.523952005776591 11.040085959780054 1 -1 0
2332 1 0.7088690980638306 7.15126268965988 8.66441351703881 -3 0 1
3326 1 4.840106057189867 6.857474227832695 10.20286457921928 0 -1 0
2130 1 5.46720615882071 8.878284134319667 10.444370120237954 -1 -1 1
3746 1 6.2382920309084335 7.89657913563096 10.840369342084053 3 0 0
862 1 6.713056456086029 9.434574227566554 12.040083540186641 1 0 0
1892 1 6.88817569178546 7.262696163312551 11.390315427873645 -1 0 0
1464 1 8.591380868474543 6.702297752002938 10.6499065824107 -1 0 0
3900 1 7.681397336376385 10.278475391840923 9.826210088689669 1 0 1
3837 1 8.694941754824084 6.282330708096224 12.86900699079666 -2 0 0
2040 1 6.433198317020695 8.63257695917603 10.039185160538608 0 -1 1
2638 1 8.51700560403943 8.347942949081952 10.372792223469267 0 0 -1
51 1 10.815070241932577 9.965650895852395 11.449867980622264 1 0 0
1196 1 0.2958188626152152 9.351105242555214 10.178064426382766 0 0 -1
1640 1 1.2361569288456775 8.878458036956058 10.433586786439879 -1 0 0
2824 1 10.05138873049872 9.152766375395801 11.664310895970402 -2 -1 0
3658 1 -0.19988019315387806 10.98709131353263 8.606585288317529 -1 -1 1
2453 1 1.8787790582502208 8.019690417378143 10.077918947236446 1 0 0
2541 1 3.0540436439699876 8.046451864219739 9.713827308266907 2 0 0
3975 1 3.1388854821521903 7.875159733321496 10.805059503433183 0 1 0
1047 1 4.0734188319841085 9.079011279507261 10.448486640049348 0 0 -1
1946 1 5.505717024464886 7.666870071770232 9.924047553056672 -1 1 0
2442 1 5.920176659374976 8.121080318462523 8.46110612841816 0 -1 0
2624 1 4.960675565082078 8.793309475020694 11.437914585100781 2 0 0
1168 1 1.8856502434247027 9.099111527345979 11.480023402725756 1 0 -1
150 1 6.049479157754737 9.071284782006328 11.345412188323671 1 0 -1
3386 1 8.531645161818766 7.973024609256553 11.52425015462315 1 -1 0
1351 1 7.500604558590991 9.932573318724959 11.042996350296834 1 0 -1
146 1 8.783346175401116 10.436527806808575 10.343514530502077 1 0 0
3533 1 9.259769526345263 9.074887250455399 10.744354022292397 -2 0 -1
3154 1 11.256267383955509 9.561584972068868 10.383858060681188 -1 0 0
1515 1 9.511932813669 8.148338735641124 10.144238757847347 0 1 0
1264 1 10.663330244601923 11.443909234692423 9.663920222543949 -1 0 0
2044 1 -0.016714486100118497 11.117017146829813 10.955645430994078 1 1 -1
3468 1 0.5666664642694235 11.12748615734 11.85585168774473 0 0 1
2916 1 -0.40308955026439114 11.406255058482095 9.866595764586085 1 0 0
3190 1 -0.8266938655854459 10.501391257213625 10.580924533584147 1 1 0
3498 1 3.0347248832460116 9.222502197202555 9.852116962467308 2 -1 1
506 1 1.8793077130737168 9.330019324424134 9.653402808844454 0 0 -1
1068 1 0.4303228197240305 10.254007861864277 10.948558883690806 0 1 -1
2391 1 4.510228635893129 10.6722363907582 11.174790787134341 0 1 0
2988 1 3.943609465029989 9.396071488191854 9.449429185784664 0 0 0
2555 1 3.9953273781405594 11.30747957051069 12.260589525011275 -1 0 1
3861 1 5.1501661670612515 9.47773361895713 8.935708198281947 1 0 0
22 1 7.241563998735787 12.048233106613626 9.759108892098263 -1 -1 0
1685 1 6.446975679434129 10.03381548812157 11.106377149554667 -1 0 -1
2047 1 3.633220334989616 11.312158856953662 10.848858918645915 -1 0 1
2308 1 7.972019370985102 12.218305408389499 10.685011793105623 0 1 0
856 1 9.220133679444729 11.432977048146569 10.954109083016812 0 0 -1
1826 1 9.801659855521864 10.54765329491117 11.276161709616536 0 0 -1
1622 1 -0.652339334497918 11.990521887125727 10.935552847946267 1 0 0
597 1 10.175739714246065 14.056421260568321 10.955692614838695 -1 0 0
94 1 2.3946044340759705 10.60874689830377 10.532090909201775 0 0 -1
3688 1 0.21656642590558106 10.345713653701742 9.976447072203381 0 -1 0
2545 1 1.737278939933892 11.109758943247096 11.234382922217474 0 0 0
981 1 -0.23311099196340168 13.030191079431694 13.40259747682521 0 0 0
1994 1 2.4171256093046596 11.591529932853394 12.195038133154798 0 1 0
807 1 2.499177344381024 13.033808832451726 10.182585770882376 -1 0 1
2791 1 3.6885193959144145 12.443856231969665 11.241548567448826 0 1 0
2546 1 5.097377121385724 11.299497900695487 10.535530485563008 0 -1 0
13 1 3.352311764978692 13.619009979922444 10.752512143176284 0 -1 0
560 1 5.8744525596297645 13.48716872694909 12.117554314041906 0 0 0
801 1 5.814105861263898 11.85476555605298 10.777835328032173 0 0 -1
2575 1 6.9354184495924525 12.562538735823377 10.721153884723138 1 -1 1
1267 1 6.308845630748058 13.339198184923502 10.85072939696273 1 -1 -1
1869 1 6.271604362874605 12.320787248963128 9.93055146676109 0 -2 -1
2597 1 8.27475874158866 14.407010631237508 10.866053523787574 1 -1 0
1235 1 8.037301910588031 12.743994030373722 9.529081631759794 -1 -1 0
217 1 8.996075878893112 12.339790245364119 10.267579594438356 1 0 0
2347 1 11.250000466557504 12.673050250633555 10.142084784662206 0 0 0
3819 1 11.013330675158716 12.937732192501661 7.951275968324273 -1 0 0
542 1 -0.13521098931017572 13.134049029167816 12.304661569035213 -1 -1 0
2146 1 10.114979393112819 13.113002048410548 11.605862896041439 0 0 1
3820 1 11.376821870596649 14.991556838276457 10.927707763150716 0 -1 1
1925 1 1.546022156847084 13.84157382228949 10.273302164028914 2 0 -1
756 1 1.615271520235229 12.185040136063224 11.000430598696001 0 -1 0
1452 1 4.027078671668662 14.071038608180972 9.54507576189905 2 0 -1
2228 1 5.338197690269865 12.808597181623837 10.399118297780038 0 1 0
1238 1 5.695578591954411 14.628544822654346 11.855531150316251 0 -1 0
636 1 5.489492645198156 14.023245116588926 10.775316299100758 0 0 -1
1457 1 7.029113355740432 14.282165503444341 10.969905362513089 -1 0 -1
2530 1 6.1557833908764055 15.107036544453736 10.862816692967193 1 -1 0
1580 1 9.322411736263737 16.56371216928246 12.734180069256846 -1 0 0
1658 1 8.320347636493418 15.652497860664107 12.57699531816299 -1 0 0
3093 1 8.416816207491122 12.977685774031057 11.457922217239615 0 1 1
435 1 8.842146541760457 15.125374478955097 11.753434072432771 -1 -1 0
3556 1 10.131362861931725 12.816830860716005 10.58582100382853 0 0 0
3287 1 -0.6357893107712009 15.38676944157456 12.451012674448027 1 -1 0
1117 1 -0.009253960687682916 15.780081865826686 10.110158395759148 0 0 1
2426 1 0.5596159881969038 15.076819240488723 11.038636923962843 0 0 0
1370 1 3.2515032204348016 14.778801192998825 11.196313377523152 0 -1 -1
2424 1 1.6214289344869863 14.767728727938271 10.769699064004486 0 0 0
728 1 2.360832566142493 14.280839919191068 11.507296336227531 -1 0 0
3806 1 5.386469969224208 15.808734225110273 12.362476055564859 -1 -1 1
78 1 3.29773588149365 15.84781437437295 13.102041490190299 0 0 -1
1886 1 4.160411119034117 15.284524654189125 11.672924812105961 -1 0 -1
1330 1 7.556995531840618 15.17844064413609 10.558982550041918 -2 -1 0
993 1 7.98346617774885 14.412946823099167 9.398910262945622 0 0 -1
3399 1 6.558742779475976 14.580386304503984 9.914236323490467 1 -1 0
3119 1 9.111726097466079 15.32529171019358 10.501330402823902 -1 0 0
3462 1 10.223261684452675 17.56096132684172 11.98263052202208 -1 0 1
511 1 8.223070326100098 13.848640017189688 11.999966371234047 2 -1 -1
36 1 10.363861556731038 14.101801303439037 11.953281612809615 2 -1 -1
1820 1 11.060370755206593 16.352546883258263 10.63557357036763 1 -1 -1
2375 1 0.8324621494157527 18.545719803135803 8.413814057113624 2 1 -1
2269 1 1.3482644047627836 15.564475166286739 11.526693742871217 0 1 0
3756 1 11.403989603985252 17.451451204050286 10.3932102466524 -1 -1 1
100 1 2.9634865974292666 16.423063033089228 11.25651327183503 0 -1 -2
3768 1 1.1484929820280092 15.785923052899628 10.318006913711205 0 -1 0
3247 1 5.129036192919585 19.20885071955731 9.689414218106155 -1 0 0
333 1 4.152685286379809 18.79568990535204 9.94097489907122 0 1 1
336 1 4.333408306738793 16.516908950797536 12.170307250275215 -1 0 0
3385 1 6.867068807386038 14.652778359692173 8.720590700770925 1 1 0
2290 1 5.29045383533886 17.01485010664618 9.991838489463372 0 1 -1
486 1 8.53001095657688 17.011876162150507 9.462580845881876 -1 0 0
2913 1 6.791901299673529 16.205408857542615 11.261202584988007 -1 -1 0
3019 1 5.7676298365837955 16.05459442638233 11.372471740147278 1 0 0
734 1 7.980220767442631 17.321016018086823 8.31846174821847 0 -1 0
2079 1 10.30817658226715 17.05822525056228 10.949567817438085 0 0 0
1937 1 10.605976151988836 15.073322285938405 11.820212118831535 1 -1 0
318 1 9.92262452654023 16.280804466924785 9.956979573679737 -2 -1 0
2616 1 -0.7373219865140871 16.059519426833894 11.36675790883439 1 -1 0
666 1 9.235326335867848 17.421018787808187 10.402069610024181 -1 -1 0
2379 1 0.7718826172380828 18.527473033439477 9.478576830917186 1 0 1
3871 1 -0.544345002999059 17.08797575905215 9.461558901800085 0 0 0
3404 1 1.1493888973811979 18.182609674674204 10.546433294734983 0 0 0
1147 1 0.35144064832547284 17.754952515791977 10.069622870845908 1 0 0
309 1 0.6158423178027432 19.03982762781922 11.106925215372929 0 0 -1
1449 1 0.13488896061916766 17.871300409320696 11.143648788444086 -1 0 0
3840 1 1.9572255122938143 17.116576875677914 10.930059770390276 2 -1 2
3769 1 1.633957883073239 19.753335049938173 11.14046527016045 0 0 0
1540 1 1.9417391010522604 16.453731047275575 10.052295690513992 0 -1 0
400 1 4.1015003001987616 18.173251182920716 11.069370021734017 2 0 -1
2278 1 3.385579125490464 19.36371245714127 9.518532955340659 1 0 0
1114 1 7.6912039114852835 16.95477773143044 10.378612692494373 -1 0 1
2836 1 7.073412371431882 17.985541735696444 8.942382986167996 0 0 0
704 1 4.825183329966009 18.199907211081907 9.196986162206255 2 0 0
2811 1 6.4497035450413085 16.530626924659266 9.755988426358382 1 -1 0
3922 1 8.973384890095414 16.15437327812429 9.600849397508826 -2 0 0
28 1 7.726304104679739 17.570405635095163 9.598034256796343 0 0 -1
2169 1 8.742889202065776 16.54665089687054 10.562161213149603 0 -1 0
3248 1 8.483696114626197 17.466550769547517 11.185949986335565 -1 -1 0
3822 1 10.413485718644008 18.395689625761975 11.298315495182194 -1 0 0
481 1 0.43312185179464957 19.60723375872699 9.725812614289266 0 0 -1
160 1 1.335952317294773 -1.132132865612695 9.996291344421403 -1 1 0
2415 1 1.5838069140562312 17.543292060762823 9.812255287097408 1 -2 1
2010 1 1.2844003992365813 19.17413125401142 10.221937691484568 -2 -1 1
3161 1 0.8580297323050219 18.127537731819515 12.720680985359538 0 0 0
3030 1 3.2781471152545993 18.44181282848092 10.544378049380837 -2 0 1
2316 1 2.722873310651732 19.34213016301443 10.359844565199756 1 0 0
414 1 6.090281363169198 19.037252241915212 11.45512315861257 0 -1 0
2954 1 4.351724186022089 -1.3376009731062872 9.465792499301347 -1 2 1
1545 1 5.632455329210321 19.78209509435714 10.59654353133447 1 0 0
2488 1 6.579307233596475 18.234358905099327 11.10958753006545 -2 -1 0
3267 1 8.185107747073204 -0.5774756534895538 10.567236761147814 0 1 0
3057 1 5.691028685384748 17.313174161183078 9.150355282259039 0 0 0
3470 1 6.81303021203994 -0.04530791835777781 11.376389833107313 1 0 0
381 1 7.992478813796117 18.76649079472081 11.628340261872141 1 0 -1
575 1 7.221633398039849 19.088973671662067 10.53678887454303 0 -1 0
2212 1 9.073717454107776 19.2359216480246 9.663850080984133 -1 -1 0
769 1 8.587934501138104 18.35395067210296 10.29262342252529 0 -1 -1
125 1 7.660001345731271 18.02767522047847 10.648748941767632 0 0 0
1342 1 7.921425464529769 18.914981226765846 9.74929021853024 0 0 0
2004 1 10.411767421534279 -1.5166149079967473 9.688101079364666 0 1 0
2601 1 9.836678166700587 19.328145411446094 10.585415015406479 -1 -1 0
2991 1 10.788096395334644 19.542977204240337 10.694752292847982 0 -1 0
1822 1 -0.397175394069289 18.53704117503724 9.913173523648812 1 -1 -1
377 1 0.5434744399722022 -1.3370131100126088 11.102558328017391 0 1 -1
1224 1 0.014459260427888254 -0.1251062099326461 12.47688613587353 1 -1 0
2220 1 11.31152473552574 -0.8702175936360966 10.940241831267967 0 0 -1
771 1 0.8348752960194703 -0.35969743023688405 11.879164062592544 -1 1 0
3134 1 2.6861249393061803 -0.5109731699374889 13.170427120092787 1 1 0
621 1 2.612172860686043 19.546069933350623 12.64230038979012 0 0 0
362 1 3.2446108257433766 -1.09912453735932 12.40275947931855 -1 1 -1
623 1 1.858976705131837 0.8259806076991878 13.191450400217075 0 1 -1
1789 1 3.995934226173153 19.52631396429257 12.899213696667616 1 -1 0
2298 1 4.85879161851782 -0.15407920506573336 11.714410598091149 1 1 0
954 1 5.872899729871892 19.603829656253396 12.729609493247116 3 0 -1
2378 1 7.181457756826548 0.3188638604291021 12.832929390744686 -1 2 -1
3925 1 7.667040267702998 -1.3788435011997906 10.965932482471286 -2 1 0
3749 1 8.778152697471283 -1.374925807155178 13.046113770041119 0 0 2
3729 1 7.373755265476836 -0.5495662879019125 13.57972131271164 -1 0 1
1810 1 9.064510167247503 1.7035837965693648 12.83870178519609 0 0 0
1007 1 9.30668789880577 -0.5097257000473152 12.015263215822213 -1 0 0
3572 1 10.30439318262642 -0.8475989618259838 10.48628900618281 -1 1 0
1424 1 11.148370390958693 0.1963690715001729 12.087360286509908 -1 0 0
349 1 1.7429829576236098 1.0545846695450987 12.17689423546394 2 1 0
380 1 1.1074397301994727 2.0895592811287553 12.398206241291415 1 1 0
3298 1 0.8384710922953447 0.8743634288408262 12.608655720176545 1 1 0
2301 1 -0.48807359371752174 -0.47799572619709974 11.700752034589403 1 0 0
219 1 0.30230350760309355 2.6603530653486613 11.236717574354662 -1 0 -1
449 1 1.362162534223586 0.9914254711897756 14.040928459977907 0 0 0
1714 1 3.1632087030695146 1.078519262604682 13.253567598428264 -1 0 0
2838 1 3.793102712312595 0.182562418003968 12.8107237394951 0 1 0
866 1 5.853219253705087 -0.004043213703645021 12.10478976078229 -1 0 0
1243 1 6.240446704515326 -0.062393213972641304 13.054349553249764 -1 0 -1
3196 1 5.379812218208126 0.7835643295529722 11.227490628512612 0 0 0
174 1 7.089901069734423 2.1204926345166393 12.212581377286094 0 0 0
1133 1 10.555908826123053 0.6135490054553854 9.573094303348864 0 0 0
947 1 8.12052318051746 1.9469468248326227 12.361327856282394 0 1 -1
3380 1 9.193726601908235 -0.7790699808266766 10.922490499142793 -1 1 1
1101 1 10.693708692078333 0.6484370661004775 10.569607820789308 1 0 0
155 1 9.976528783284246 -0.08278513713898317 11.244986437104437 1 0 -1
3448 1 10.55877032575173 1.0483480886213177 11.522663498836229 -1 0 1
385 1 -0.5904126451100169 2.716551131862542 12.897143511756392 1 1 -1
1397 1 1.6613254974752016 4.028965338864363 11.847831768596173 1 0 -1
2088 1 0.6372768840257794 2.2634259887385926 14.046890360121782 0 0 0
3694 1 0.11973558421955555 1.3199652325613362 14.142840404117207 0 1 1
3068 1 -0.33747851993768074 1.9025377092871505 10.987621715612546 1 -1 0
3224 1 2.2265673611058956 3.511691497660136 12.867637209389049 0 0 0
3003 1 2.5831699774142165 4.7588437965570725 12.425192989685394 0 0 0
2422 1 1.3566295362413383 3.0711880652830477 12.127087461766955 0 -1 0
35 1 3.5605978131371314 0.5072232297172081 11.76728139500697 -1 0 -1
2692 1 2.3027316976628263 3.2348740164097816 11.453742632613402 0 0 0
142 1 3.951024447849516 1.2084613621509699 12.695203943967215 2 1 -1
1119 1 3.0402637423091914 2.434433769971365 11.356249947540281 2 0 0
2767 1 5.04444044355023 1.896193811768085 12.86319932198427 0 0 0
491 1 6.698112452955594 1.824868695465609 14.16694293623818 1 0 1
3904 1 8.41153081353841 2.642489436023302 14.996174679335455 1 1 0
88 1 9.061396261888362 1.0333412690077242 13.852431299591679 -2 0 -1
2485 1 9.038738692619466 2.223462637524815 14.089785180913946 -1 -1 1
1319 1 9.896199761774952 1.7411146904440709 14.350151859710197 0 0 0
3099 1 11.00735216871887 1.1616395696192061 12.784302920714742 -3 0 0
984 1 -0.12512430073324854 5.406972867214132 13.184412549752432 -1 0 1
559 1 -0.687343027023145 4.418640029114404 13.014015311462938 2 0 0
3677 1 2.228038307625592 4.912180418119411 13.649041140294779 0 1 0
2704 1 -0.16831700897866342 4.765505443809536 10.642788960661955 -1 1 0
1431 1 0.33752826723960405 4.3559967357258875 12.197185021051274 1 1 -1
1456 1 3.34366921007718 2.5465552953426354 12.463226733027849 -1 0 -1
3999 1 5.247244385345551 3.0358349299659144 12.545062797150118 -1 0 0
2227 1 4.556107394054508 1.2472324655738705 11.504264473889563 1 1 0
3183 1 6.4299733314583465 1.0654974674696653 13.091267225444959 1 2 -1
935 1 5.423621797585495 1.1559498015160594 12.161764475472388 0 0 -1
2352 1 6.111504586456371 2.2007084830743078 12.520941677990118 1 0 -1
3304 1 6.57839093582047 3.065652976358555 11.851945352096084 2 0 -1
1258 1 5.985439468938475 2.777724027749202 13.387560662914717 2 0 -1
2349 1 9.672996102828751 2.002653479461645 10.808285827528334 -1 1 0
2747 1 10.036096731318134 1.725186926319516 12.183527551424898 0 0 -1
2340 1 8.886165583509182 2.53131933838052 11.977871153142301 0 1 0
2074 1 7.707534468823797 2.982459501148802 11.622693855894354 0 0 0
3846 1 10.656673222788514 2.832743157727754 12.691223536629881 0 0 0
3845 1 10.748279352834828 3.0965546451539527 11.08810245481842 0 1 1
1485 1 9.564342305294778 3.693184591796176 13.822720234572357 -1 1 -1
1008 1 -0.4369514462800028 5.506870747957419 11.660070896051367 -1 0 0
3887 1 1.7458920145971049 6.037324484622696 11.633355197733533 1 0 0
1815 1 11.184347567917344 4.7342548589099644 10.446805968205373 -1 0 0
2707 1 1.1517850694189278 5.286806005827077 11.224278308807335 0 1 0
2953 1 10.52935112163557 3.694649973064723 12.090851804847068 0 0 0
2934 1 2.846638978382992 3.94118563654017 13.660824102018651 1 0 0
1276 1 3.723366719942695 3.1468897530021254 11.779622064527935 -2 0 1
1441 1 1.6876478699605992 5.2018903497738185 12.184742006504903 -1 0 0
3955 1 3.330621434081891 4.851803472916501 13.122498577985455 1 1 1
3796 1 6.041116851954507 6.202384993305644 12.130509936319513 -2 0 1
1671 1 4.449043110694703 4.057898916372395 12.353382916875235 0 0 0
2259 1 5.45413698349797 5.188758270495796 11.093348583137974 1 0 -1
3995 1 5.509251059882509 4.130754571295241 11.93126818409519 0 1 1
828 1 7.03424375586687 5.485240757442488 12.004735508724213 1 0 -1
1744 1 9.464887977909664 3.610548678188117 12.629107522099176 -1 -1 -1
2179 1 8.400728938780363 5.727176881108781 11.348265878886922 -1 0 -1
2500 1 8.813242101547068 2.7953014541847914 13.098389491682298 2 0 -1
4000 1 10.786340829818705 5.44425046228562 11.855213250172286 0 0 0
2356 1 9.985026310052966 4.511092353449513 14.372619943786598 1 1 0
2514 1 8.756549794864517 4.708503266492516 13.076078271193662 0 0 0
3061 1 10.880408430209359 6.876186504728945 12.238714450975644 0 0 0
496 1 -0.5817288838979189 7.475943495621232 11.882609204070176 -1 0 -1
3025 1 -0.8000761591445047 6.479192381026088 11.508819275665372 0 1 0
2432 1 2.778281418155406 6.290550371907615 11.745682681676572 0 0 0
11 1 1.438234683924808 6.0239620493817725 13.248806195712437 0 1 -1
804 1 3.019410384039257 8.681758715614691 12.05748455426045 0 1 0
3732 1 2.4458941501607048 5.779385170740075 12.846885971256807 -1 0 0
222 1 3.646438706971521 5.6566488569555835 12.401371126989819 2 1 0
243 1 4.9785618727779815 7.924577789013005 10.953719926431981 1 0 0
248 1 4.107830332760503 6.297367153689613 13.124525911941753 0 1 -1
3956 1 8.3170495184774 3.6701966163549624 12.477722600708095 0 -1 1
949 1 6.711585364707667 8.196984656016177 11.96047867935893 1 0 0
933 1 8.623607845348811 6.629553211228348 13.790420078910707 1 0 -1
1737 1 7.866033919124144 4.042284196948298 13.425664302037942 1 0 0
550 1 9.34137668132741 4.785038744091397 10.341279009618109 2 0 0
422 1 10.795331746647305 6.520130322433818 13.815645816594595 2 0 0
202 1 9.769349334011487 6.625627655045426 13.192025396724517 0 0 0
722 1 11.137055365123304 8.851561949675173 11.252399653790105 0 1 -1
2784 1 10.748443761114709 7.717476773851278 11.558502371536068 -1 1 0
2038 1 1.68967440575803 7.161572543430516 9.335423342781263 0 0 0
2363 1 2.9849427847322745 8.985263318500394 11.055503771044934 1 0 0
369 1 2.3236409739668056 7.620778729800676 12.977308632528763 -1 -1 0
573 1 3.9114088043787794 7.780714376123285 12.943343565652965 0 0 -1
1364 1 4.382768466159258 7.8726576701124085 11.975579545573462 -2 0 0
2305 1 3.956327042192923 6.818521178509549 12.123373935715817 0 0 0
1693 1 5.2337653308939815 6.108597749528739 12.942874657924731 4 0 -1
2086 1 5.481570709945807 8.121926203639969 12.047766654081823 1 0 0
3199 1 9.6558350395631 5.539113174364791 13.41399640368493 -1 0 0
3388 1 8.190961848920262 7.126567832155477 12.064976229297878 0 1 0
328 1 9.456886605907107 8.212552047570131 12.29842811170544 -2 -1 0
3280 1 9.180562563057059 6.2330205182944125 11.96606162403815 -2 0 1
3259 1 8.154655552163456 8.925002713358476 11.154353971171181 -2 0 0
402 1 -0.6468247476090409 7.129584465963539 12.906296017229117 1 -1 0
1174 1 9.831756350297681 8.167588674354528 11.278756378975359 -1 1 0
2595 1 10.477239701123361 6.574522929457656 11.277082117356146 0 1 0
3137 1 -0.5686752568868814 8.298026771439726 12.690429733169353 0 0 0
2563 1 11.393300122051699 9.153576264791836 12.218007828320587 -2 0 0
1470 1 -0.20021331700435885 9.291317227019036 13.828430829400968 0 0 0
3934 1 1.1155451472062947 8.380645590422654 11.81229879059268 -1 -1 0
955 1 2.362126046048626 8.792175459274743 13.827915350169487 2 -1 -1
1988 1 2.108177250762332 9.970677012231002 13.224648234871415 1 1 0
1326 1 4.891370776835225 9.703398149692418 11.073677710252046 -1 0 1
3766 1 3.82890935190784 8.817864833916566 12.741100149352711 1 0 0
1761 1 6.319105131036997 10.006898848334536 13.175978516130405 0 -1 -1
3260 1 4.655496538020308 9.87933116645536 9.924821232478578 -2 0 0
2676 1 6.2149328206440115 10.54859455034589 12.089301674283671 2 0 1
1488 1 5.593359808331614 10.602718963489977 11.349477240174076 0 1 0
3890 1 9.208755038313084 10.260830768225215 12.31116942635638 1 0 0
1650 1 7.367755175958182 10.734768417569457 11.707786880251053 1 -1 -2
966 1 8.205656744585623 12.08156620320982 12.353587464074984 -1 0 0
1734 1 8.939842633269821 8.950400116423904 11.784883881618102 1 0 0
726 1 11.322196826171666 10.315364214685003 12.215828522186138 -1 0 -2
3281 1 10.514428986342343 8.510125797349883 12.431037772739042 0 0 0
3023 1 -0.11572063455656856 11.988345218688389 11.805135702075825 -1 -1 0
3365 1 -0.4796289568592016 11.089577134855618 12.885938797831193 0 -1 0
1245 1 -0.53747702306769 9.531573251703207 11.341906538965976 -1 0 0
2585 1 1.3831227072675145 9.688590011517503 12.402378970344241 1 0 0
3948 1 2.3369258567116584 11.291361954333338 13.164556942884504 0 1 0
3391 1 0.4780341248114208 9.139495027134721 11.51306322841251 0 0 0
214 1 2.4865189324470656 9.625623572263391 12.092954927815924 0 0 -1
1228 1 1.590611168839724 10.089572740095061 11.547238073150647 -1 -1 -2
2195 1 3.777646468609043 9.657911365718006 12.036321884098408 0 -1 0
1773 1 6.901877270941719 9.022097462376793 13.164182900088084 -1 -1 0
1934 1 6.428176004875671 11.7197668584342 11.663632587452502 -1 1 0
1080 1 8.466483572730084 10.166272733296609 11.455004824207705 0 0 0
735 1 7.4356449779157625 12.168880480121734 11.666655867543497 0 0 -1
2532 1 9.425495864678641 12.346006657082723 11.329909952239724 0 -1 0
792 1 8.115802484911365 11.066579493933883 10.954331404215848 -1 0 -1
397 1 9.484235961735193 11.43258618450018 12.883835800022823 -1 -1 -1
1104 1 11.2349850681203 9.113314147903228 13.227764823103648 -1 1 0
784 1 10.860328023173425 11.049588246013787 11.437074636319556 -1 1 0
1215 1 9.940121095439462 11.598593213174338 11.855658180456873 0 -1 0
3778 1 10.542169882288494 10.908595166487185 12.412785936777112 -1 0 0
1355 1 0.5398307972818441 11.692294983213896 13.21807549827464 2 0 0
1335 1 0.662767752681485 12.80495958139823 13.898767144122374 1 0 0
3895 1 -0.6347029210817023 12.975258290775038 11.145632448816304 0 0 1
905 1 11.108514539787297 12.746025258689716 12.268610763969754 -1 -1 0
1930 1 1.3499198598997357 11.696764741178962 12.02400535248699 0 1 1
1936 1 2.9753297763222117 11.950454225529375 13.703821341231304 2 0 1
3476 1 4.067399139846285 11.9637622632424 13.9573239478221 0 0 0
881 1 2.848380296584071 12.992556692740795 11.314669003248401 1 -1 0
2280 1 2.79324724691726 10.80480177736397 11.65522759427297 1 0 -1
520 1 6.403639795387429 14.876200734547401 14.01659973563284 1 -1 0
2009 1 4.829690821068786 11.57404591393737 13.125748729859316 1 -1 -1
1115 1 6.1039869287394435 11.291312131602034 13.549844542889598 0 1 -1
2973 1 4.330556550433685 12.405900419739607 11.976804020622597 1 -1 0
1191 1 6.257244678139759 11.270468679679867 14.736689021638322 -1 -1 -1
2958 1 4.524248860466247 12.070732327973102 10.715780560455542 -1 0 0
425 1 4.715268756911396 13.226296227418167 11.410826192551419 0 0 -2
3503 1 7.629578957612619 13.131023195940246 12.633372143333899 -2 0 0
1426 1 5.441887761317936 12.405706154617146 11.560963750572878 -1 1 0
2273 1 10.238550743105044 11.588582151271517 10.519764924183198 -1 0 -1
3632 1 8.950795803742263 12.941806260972417 12.38502397693871 -1 -1 -1
2841 1 10.799829253317212 12.287532288009949 11.162881999772505 -1 -1 -1
201 1 11.1982447068231 11.700885641069483 12.184375157880117 -1 0 -1
2680 1 -0.8463994108003474 13.89467595153193 11.810990128109353 -1 0 0
2071 1 1.375131602500578 13.184970774840505 11.108356078425004 3 -1 -1
354 1 10.909670773804637 13.477612823541735 12.928771881921964 2 1 0
2937 1 1.441768879068822 13.905053087478036 11.918292922169382 0 -2 0
1014 1 3.1449360065914425 15.597761982275818 11.941503480734594 0 0 -2
3588 1 1.4047280489419758 12.770034378533756 12.086116048248991 0 1 0
2313 1 5.099992325137208 12.854923756659918 12.69478287763996 0 0 0
1476 1 4.4984082125252565 13.82322796039799 12.611456469692078 -2 -1 0
1111 1 3.52142308484284 14.436044237448623 12.220674723429918 1 0 1
795 1 3.751784757049851 13.492189416520482 11.794708100971702 1 0 -1
3653 1 6.673580136115525 11.297070841213097 12.654110967560625 -1 -1 0
2727 1 6.487750474396591 12.644924661267526 11.885617935414773 -1 0 -1
1833 1 5.156080858957485 15.15978570035365 11.090118626324603 1 -1 0
3737 1 9.733704340457678 15.750696632057275 11.95180041030323 1 0 0
3197 1 9.211059939266049 14.168224588318143 12.020733363224922 -1 0 -1
895 1 8.259161002833439 13.362939552512534 10.386277242024304 -1 -1 -2
2150 1 10.978499167185591 11.795979206396806 14.4681599114863 2 -1 0
1866 1 9.738253212408969 14.609582016647883 12.7936189826064 -2 1 0
3442 1 10.321872513328547 12.097893270858561 12.686746400120208 -1 0 -1
1257 1 0.8939705232664701 14.919447046985864 12.281201693056728 1 -1 0
641 1 11.06890472848475 14.621556053186945 12.800562035763692 -3 -2 -1
2473 1 2.173045745736262 15.630806153419071 10.502827955906154 1 -1 0
143 1 0.3894124233813534 16.17321907844574 11.390323388659354 0 0 0
3207 1 2.7695054572956646 14.651048176025691 12.985288592717325 0 0 0
2547 1 2.19044153266105 15.096568269193837 12.276199414535796 3 0 0
3703 1 5.290641253923837 14.931782839434748 14.080663641430633 0 -1 -1
667 1 5.404991245802081 14.126734762872717 13.081381850175747 -2 1 0
44 1 7.1371814132829705 13.883360601033639 12.152446457158614 -1 -1 -1
1310 1 6.481201400426271 15.352614240768167 11.779382860818938 0 -1 0
923 1 6.069914498571667 13.892248367514117 14.069455329868084 0 0 -1
1783 1 7.84098852983108 15.918126415576074 11.442524004977537 0 0 -1
3833 1 10.239965122968572 15.289063850779309 13.245243426818464 -1 0 0
790 1 8.070922690076465 15.194768809855029 13.540721070117806 1 0 -1
963 1 -0.268281356637291 13.956072093640058 12.807780025777282 -1 0 1
811 1 -0.7323268314278665 16.91045198654833 12.257559285627357 1 -1 -1
522 1 0.9680878487886755 14.623498778771625 13.775193193250427 1 0 -1
3812 1 -0.030880131550690693 16.57175950946828 13.04299155821522 -1 0 1
390 1 1.962756592437029 17.36667176457467 12.153638719987663 0 0 -1
1340 1 1.1700027547911298 16.498406608507274 12.348171993840943 1 0 1
2036 1 1.0248820096395896 17.463576299139 11.665576917174269 1 -1 0
1659 1 1.9559136540950441 15.158095348803704 13.54336556192903 -1 -1 0
1232 1 3.570998969732803 16.74955196165923 14.215185502781736 0 -1 0
3398 1 2.866479367338127 16.704038533656963 12.371149901383566 1 -1 1
3133 1 2.0409903025093574 16.268989284288033 11.839429610467567 0 0 -1
2962 1 5.6479094571397015 16.334663744470532 13.436558698719411 -1 0 0
655 1 4.354238230461256 14.706245173222046 13.354914725764846 -1 -1 0
1377 1 4.600383477636944 15.705221046555819 13.174586092843159 0 -1 -1
2844 1 4.7775600739265895 14.836295380023328 12.440415208767936 -1 0 0
3488 1 6.034673554745962 16.963725919428853 10.790574513014624 -2 0 1
3910 1 8.325104782391827 16.854346893908343 12.948974314420909 0 1 0
3884 1 6.352113102457564 16.215533002620475 12.534968591007024 -2 0 0
3927 1 8.909852954803108 16.348800433995606 11.76064896342837 -1 1 1
1504 1 9.969593546304857 17.375948958693478 13.113966511454246 -1 1 0
1862 1 10.50405270718829 16.53959007364547 12.71399104612734 -2 1 -1
3150 1 11.111974878261785 17.363770749184674 11.507979337725173 0 0 0
2289 1 0.11282916511996632 17.53859940495169 13.40840845606461 2 0 0
1954 1 11.442610392175476 18.7445186802481 10.918834702053283 1 0 0
772 1 0.14079406990658483 17.004544821056548 11.904690482023396 0 -1 -1
1246 1 3.831827864627228 17.2046787980647 11.574359808077993 0 -1 -1
1316 1 3.144722133200239 18.143461597951074 9.418534851175526 1 -1 0
2505 1 2.072418134296356 15.997812492336548 12.918937766377471 1 -1 1
940 1 5.075285888038188 17.786342360957946 11.62991189418963 -1 0 0
3685 1 4.937412068229016 18.068519082455843 12.97281181009517 -1 0 1
2197 1 6.864916435834526 17.53610145653397 12.26760582914172 -1 -1 1
1669 1 5.943521981720838 17.17274326214173 11.809857657066043 -2 -1 0
3505 1 5.961756149927633 18.312919948598484 12.505735010994082 -1 0 0
1420 1 7.505228175341381 16.663673970933594 12.19740744337548 0 0 0
1489 1 8.999522071482993 18.5228032653285 11.819310038859287 0 0 -1
2511 1 7.738361789499722 16.4177766004277 13.830177936887187 -2 -1 1
802 1 9.444107119371392 17.093479151848726 11.480895964387512 0 0 0
3525 1 10.24083844829291 18.53529668964582 13.237706610524222 1 0 1
526 1 11.055970818496334 17.44722137648028 13.121957192802414 -2 -1 -1
2965 1 0.20895425499510045 18.885416739592962 12.136277610085731 0 -1 0
2874 1 1.9808939851655607 17.83152836019208 13.347967809606722 0 0 0
1437 1 1.2164310768788327 18.681985181077465 11.886393016512631 3 0 0
19 1 2.119907633668207 18.354558596076792 11.124491565394457 2 -1 -1
1139 1 2.4566216952901057 19.09279155731057 11.766812899523597 0 0 -1
1984 1 2.5818921977434095 16.908088711848684 13.36731564958273 -1 0 1
1521 1 2.895906606090484 17.48953103350106 10.288362359708183 0 -1 -1
1109 1 3.9231209797889557 17.857009778843505 12.526166338898895 -1 -1 0
922 1 1.9795282011165347 18.397755890336313 12.490391596137378 -1 0 -1
839 1 3.009613557636855 17.947029434610762 11.683720354182881 0 -1 -1
1341 1 5.0735476369127595 18.88147676986734 11.211006616518414 -1 -1 0
1559 1 6.2203946534951875 -1.3322630396707147 11.83724784898154 0 1 1
361 1 7.146225495045597 17.262856941678116 11.34220680717915 1 0 -1
712 1 6.90224722090206 19.43212885945995 12.245019857048982 1 0 0
3741 1 7.809853271697584 17.903445283101 12.20151900080811 -2 0 1
3252 1 10.781145300942866 19.56467547280205 11.757986467552302 -1 -1 1
3250 1 9.093379050189107 18.109285722307234 13.214453077114463 -1 0 1
2394 1 8.383739436951448 18.990761353389743 12.966655004458422 0 0 0
1194 1 11.208947891673521 18.12561477029557 12.371726407232282 0 -1 -1
1365 1 9.484783762485376 19.091733121438388 12.628748375483418 0 -1 0
1887 1 10.611108940028068 -0.7476970252993314 11.634412852176768 -1 1 0
3407 1 0.5615898059022346 -1.0393405412053442 13.594142002964492 0 1 0
448 1 -0.058764149857011505 -1.2645899703435746 12.82342068068894 1 0 0
1427 1 11.148952198506212 -0.8386694815173842 12.97138301566053 0 1 -1
1193 1 1.719473890966278 -1.0491287748847475 14.071896723086422 1 1 -1
1231 1 1.1263268886929914 0.06546859109939462 13.235249930098904 -1 0 0
2182 1 3.1608995406283658 -0.2272140396467368 14.097828030129701 0 1 -1
3228 1 1.423318447861603 -1.0396621018874943 13.083125520632832 2 0 0
1519 1 2.7881884368382597 -1.224996219193096 14.076164417751944 0 1 -1
2258 1 1.2516546843314598 19.005080826525266 13.972650298945277 -1 0 1
1679 1 4.913337805524175 -1.3774888982410292 15.05452984581609 0 0 -1
1241 1 7.279899681619048 -0.976268508200478 11.93390091458824 -1 0 -1
2428 1 6.667116676539816 -0.9439388243394363 12.774822635491361 1 1 -1
813 1 7.34443063039231 18.300274598959646 14.258336176736252 -2 -2 -1
3347 1 8.325545633037903 -0.5571473284737681 12.62861423344584 1 1 0
3145 1 8.665602909044695 -0.10185248354545706 13.802651201965626 1 1 1
1398 1 7.5481422591062035 1.54057093867839 13.259956755530764 1 0 -1
2436 1 10.362799149506044 0.11899124159382612 12.72527429990688 0 -1 0
133 1 9.84514408223453 0.17946870222032074 13.726259913880526 -1 0 -1
64 1 10.278032617170432 -1.4771305021807752 12.987345049525713 -3 0 -1
2723 1 -0.2527886368608052 0.862601830919282 12.02070470944597 0 1 0
1632 1 -0.08121447012122485 -1.1188004591684206 15.717445471176122 1 0 0
34 1 -0.06935286773398375 0.1953821568766283 13.964270801518014 0 0 -1
2728 1 4.01490450326823 -0.014253312644473715 14.767725331947828 -1 1 -2
1199 1 3.592307526333884 -1.0439636072503566 13.489014424232357 3 1 0
3976 1 3.6172531581089675 0.9751472664404592 14.283097965757907 -1 1 0
921 1 4.341561587743709 -0.8067372576187442 12.697892886743743 0 1 -2
1852 1 3.365825770625177 19.18332993481797 12.02190174370612 0 -1 -1
2237 1 5.361045543106334 -0.7784890106633006 13.09420248998573 2 0 -2
2057 1 5.480129929956843 1.0687540971987604 13.387907562834116 0 0 0
1165 1 9.309574956946376 19.743453588947283 11.603372249079317 0 0 0
401 1 5.01218122267556 0.3049473582040223 12.776417427020737 0 -1 0
1066 1 6.604031267109034 0.16081471496974364 14.161716118161204 1 1 0
1560 1 8.158613985674592 1.6455479631254741 14.146593984601198 0 1 0
2923 1 7.379963328731364 2.4234592716033783 16.325825849894976 1 0 1
2634 1 10.744360384149303 2.116320607047304 13.853666750348097 1 0 0
777 1 8.117474190193503 0.6736656414772444 13.398246315022067 0 0 -1
3276 1 9.194044853017978 0.562404509850698 12.877567231831966 0 1 0
2001 1 8.683860375640664 0.3610316846662718 11.858146384709743 -2 0 -1
1036 1 9.814030214000343 0.6305809557739179 11.996204638011905 -1 0 0
17 1 11.301928830488599 0.1299639885785031 13.19556851693686 -1 0 -2
154 1 0.8673861956739917 -0.21348781004731854 14.356209724461532 1 0 0
555 1 -0.5539756247242155 2.025417043411403 14.192149469717567 2 0 -1
2125 1 -0.7368215632479168 3.6168713656959888 15.09612852787472 0 0 -1
2592 1 -0.2649322255540181 1.4473533838094208 12.918832556219682 -1 0 -1
2346 1 1.4805709870313222 1.7882585844906327 14.722292757499373 -1 1 -1
463 1 1.288753034818213 2.8871166380541515 13.372639516486753 0 0 -1
2835 1 1.1468903463285387 1.7651448819432107 13.341199213862115 0 1 0
408 1 5.119244848140854 2.7468815626429413 15.111309847574374 0 -1 -1
615 1 6.117660819037347 3.6797884683578364 12.713858460727153 -1 1 0
1705 1 5.055887607025302 3.5074410838207575 14.548346882365978 1 0 0
1130 1 8.532510923869145 3.144427869885231 14.075063978855086 -1 1 -1
2612 1 7.893108117809906 1.4909581884910348 15.421653196298651 -2 1 0
3780 1 5.9452820953429395 2.472588093841204 14.571753411459559 0 0 0
1252 1 9.817620314422578 2.405589650702782 12.999422390084115 -2 1 -1
859 1 10.988205974855605 2.5886047416142954 14.852852519855128 0 0 -1
1626 1 -0.40157961859252644 6.267595481691001 13.733939371858748 2 0 0
1860 1 0.8344801937634547 5.091027543133304 13.31219199383542 0 0 -1
129 1 10.728503696119002 5.2536929699497605 13.562665982155014 -1 0 0
465 1 0.13582500554294485 1.899352847441266 12.048214531682811 1 0 0
3524 1 11.364493202449022 4.590513608753637 12.023032379593692 -1 0 0
2248 1 0.2585940754169944 4.156626189091818 13.90289551428259 0 1 0
3569 1 3.134736153579717 2.9656961399063118 13.656048454818773 -1 1 -1
3011 1 3.9207644495634337 3.9803637753186365 13.352408961473225 1 1 0
1356 1 4.177907067709002 3.02129615578058 12.816130873861992 1 1 0
301 1 5.143077983538564 2.7081346857899113 13.845065609582456 0 0 0
1701 1 5.437209459628467 5.338872822849964 12.053190156216067 0 0 -1
3804 1 6.285399135370017 3.5344155399263304 13.896929401893981 -2 1 0
1760 1 5.163515037299009 5.49607305437235 13.881578597453897 0 0 0
681 1 7.340744124515428 3.3666526459597472 12.703269204235635 0 1 0
2637 1 7.818846205826848 2.709371054761485 13.431750266500135 0 1 0
2293 1 7.959027462302297 3.6677181263554317 14.868676485864059 0 1 0
3942 1 7.191482544049924 2.8628079861869242 14.203153082456451 -2 1 0
2416 1 10.377898065789438 3.7393469252253535 13.255231208570846 0 0 0
1842 1 -0.7183362644893041 3.9859148705609933 11.29156876808521 0 0 0
3818 1 0.40823586230361575 6.214565399104963 11.254295344909817 0 0 1
2498 1 -0.16114921079281175 5.484832188505712 15.722909897708528 -1 0 0
2048 1 0.8866863049496969 4.657308987720171 14.52812080029651 -2 0 0
2607 1 0.4657187974146648 3.878002775573756 15.011084518257904 0 1 -1
1907 1 0.3531643020227626 5.631792958469673 14.758464347082098 -1 -1 -1
3060 1 4.15910358958214 4.8420317591803075 14.259838658206295 2 0 -1
1163 1 5.2576419549629785 4.460174177093603 14.193731481291248 1 2 -1
3696 1 4.661273135150212 4.999932186073782 13.007682559294151 1 -1 0
3807 1 6.129654454614037 5.77057216910282 14.71767264183258 -1 1 0
118 1 6.236506277793279 5.636130924022733 13.426422379073745 0 -1 0
3393 1 7.0053556505479895 6.582208613421956 12.260784564117197 2 0 0
1392 1 7.555756022046781 6.446643998295342 13.077336843748864 1 1 -1
2993 1 8.256087134199417 5.688805859889039 15.047631170354405 0 0 0
2354 1 8.782692982899139 4.478773684789037 14.518893696175121 -2 0 -1
501 1 9.477865990143679 5.466958244818711 14.651277627122303 -1 0 0
77 1 10.211689279518662 5.925751000519449 12.563942126645294 0 1 1
3944 1 10.488065925326831 6.065095547974997 14.785915886686302 0 0 0
2172 1 -0.7479407042763205 5.36290456168797 14.307791397441449 0 2 0
1522 1 0.7057636200951118 5.6463014436132 12.171851350521036 0 1 0
1304 1 -0.6276328066408985 6.780247718708598 15.065234436539255 0 1 0
197 1 0.7136148420243955 7.005539631123408 12.040978789213376 1 0 0
904 1 -0.14455682672555836 6.371512810476155 12.236876503759362 2 0 0
3182 1 0.629890043488712 7.39197033767857 13.441275318438686 3 1 0
2342 1 1.7671235389263336 8.830766651432288 12.953150281575173 0 0 0
850 1 3.0925159739899137 4.675376033524623 14.399615451632792 -1 1 -1
2420 1 3.184049558355121 6.601808207166881 12.761719824893378 1 0 -1
2817 1 3.3262354803234153 6.85767294435175 13.866090733214522 0 -1 -1
2854 1 5.713425084800594 7.332569245547106 13.686273294605165 0 -1 -1
897 1 7.23631649246062 5.391984462991073 13.004343957509088 -1 0 -1
2644 1 6.122277062170743 7.30685988374386 12.524610887546746 -1 0 0
1004 1 7.27183848683732 6.065710821751294 14.036130047890394 0 1 -1
974 1 8.814085869850746 7.251409746162285 15.044318145834863 -2 0 0
57 1 6.936356428174085 7.061089315130442 13.820633741980908 0 0 -1
1767 1 10.864041133026985 7.451254696223705 15.014057752277319 -3 1 0
510 1 -0.8274092525991852 7.291868191489524 14.075512196768104 2 0 1
3506 1 10.438445543440686 8.287193639517795 15.909103031686614 -2 1 1
1509 1 11.397205577518005 5.816128538867614 12.656516512410864 -1 0 0
594 1 1.209170852838799 10.821566084145413 13.786055738205528 1 0 0
3679 1 0.18165745514377862 9.195383912765323 12.601447973493974 1 -1 1
3269 1 1.9727921602748126 6.904750405536252 12.065092957812734 1 0 -1
2263 1 0.5769417653909716 6.419122312495185 12.931030255575186 1 0 0
3447 1 2.980237156443342 7.922213058629591 13.618432472644033 0 0 0
3511 1 4.657549712968495 7.116618992577315 13.510214841438483 1 0 0
2894 1 5.668023061581877 7.091534654189498 11.433847906031147 0 1 0
376 1 6.549577539448141 8.09235336390386 13.659777780480836 -2 0 -1
2523 1 4.702277631235113 8.00938149660483 14.690026386586245 -1 -1 -1
3292 1 5.192673621597131 7.026669915780735 12.337601374280556 0 -1 0
865 1 7.9095295036659365 7.486793697048597 13.795372612104128 -2 0 -1
101 1 6.358825095556431 8.896779565891375 14.753831024301745 0 0 -1
1188 1 7.340813190477869 7.968335616955191 14.670883113773206 -1 1 -1
3824 1 8.229619087484437 8.627599491950951 12.911164166236615 0 1 0
1741 1 9.953879596769141 7.177716995871808 14.772750378206082 -1 1 -2
942 1 8.925346678747358 7.591891305205612 13.049647405993804 1 0 -1
2063 1 9.630115242811295 9.244970572376854 12.60864674554473 0 -1 1
305 1 9.85577063867917 7.182017446211185 12.06234653254483 -1 0 0
1615 1 11.273381635138147 8.300501919785429 14.363144814555001 -2 0 0
3866 1 10.245186881276538 7.697527876401239 13.269935117890823 0 0 0
3243 1 1.0654715525334337 9.723419067355234 13.433482471798442 1 -1 0
2688 1 0.3874468444983361 7.863912683720793 12.552155387477413 0 0 0
3177 1 1.4004590563431285 7.520326380663096 12.619426858615306 -1 1 0
1888 1 0.8471821876990879 10.742929990116163 12.806725898866759 -1 0 0
207 1 2.0835007319715806 9.470776024338544 15.10600460229484 -1 0 -2
1812 1 0.6849548950415036 10.897341904959346 16.053911034743024 1 0 1
2208 1 5.020139003691074 8.11365943749263 13.064823283842145 0 0 0
2717 1 1.9844751115009434 11.017173631682757 14.365410889606908 -1 0 -1
141 1 4.945667625360226 8.97435746720581 12.457444730486753 2 0 0
249 1 5.550799687719081 9.757460423697786 12.060930856140972 0 0 -1
3103 1 6.026435885034012 9.638707964495328 14.026768239089343 0 0 0
2216 1 5.997270419682195 8.883012679465358 12.560792959259748 1 0 0
3117 1 7.483852711637013 7.669345079160204 12.745362898523458 2 1 1
1089 1 8.644241459569386 11.084730577014806 11.946118329316278 0 0 -1
1435 1 7.533926078375805 8.976981519885218 12.176397444920264 1 1 -1
1752 1 8.511648669073455 9.437204622894457 13.636687972214098 -1 -1 -2
3847 1 8.261698420179325 9.800691182208299 12.662371112538407 -1 0 0
3422 1 9.376254556315427 8.502694795930704 13.431995560202859 1 0 0
2355 1 10.49249446620426 9.654934244936884 12.506798649961151 -3 0 0
1474 1 10.09083122105498 10.16680104472941 13.540108332873928 1 0 0
3179 1 10.75695765835561 9.353928387700043 15.04776225156697 -1 0 0
3232 1 0.07802816183498829 11.049642446428246 13.808437572759882 1 -1 0
3138 1 -0.6460102764957092 10.962134854958366 14.516408546763692 0 0 0
1566 1 0.5266599351405465 11.035891824238808 14.90032356857567 0 1 -1
308 1 0.2956613540463593 10.141842191354643 12.207387025587769 3 -1 0
283 1 0.9610948071518308 11.73685599502396 14.264400816508767 -1 0 0
2819 1 2.015733851651497 12.04597918714033 14.01728018718207 -1 -1 -1
86 1 5.608037462932666 8.313530188768901 13.98431480513237 0 -1 -1
3367 1 4.081227236440485 9.638060987144737 13.202676416571975 -1 0 2
2163 1 4.547338047551025 10.362837995447684 12.422335551607896 0 -1 -1
454 1 7.073208252880478 10.902338938957438 13.766635878300281 0 -1 0
3725 1 5.510848466587664 10.726237927032635 12.858290241446495 0 0 0
499 1 5.362927795284589 9.103230642137975 14.632344960025284 1 -1 -1
3693 1 5.806766995160113 11.897379979012845 12.653101104902333 0 -1 0
645 1 6.449235162321323 10.09995007190749 14.797023110125322 0 0 0
2553 1 7.198396979789614 10.17408142731047 12.581490233886718 1 -1 0
1662 1 7.5541029627495195 8.50215070525424 13.869381576542503 0 0 0
697 1 7.490635057104427 9.804142209932827 13.673831485131545 -1 0 -1
3008 1 8.611022555115643 10.750224809241107 13.032627825446818 -3 0 -1
1220 1 7.6377132937380114 11.21563546906365 12.765396729882958 1 -1 0
1271 1 11.426930850818767 10.177998952613148 13.294769187613156 0 0 -1
3568 1 -0.46807359527137166 12.145944678651924 12.87596801943937 0 1 1
346 1 3.1629344677090128 12.631245614462335 14.494018185408109 1 0 -1
50 1 0.6298064545306772 12.639325806276611 12.876278602370917 -1 -1 -1
3233 1 -0.0392605049990945 13.119104979299255 14.79966436172881 1 -1 1
716 1 2.0928197174221754 10.611675702617065 12.48764546123679 2 0 0
3454 1 3.120655553920571 10.211085778335082 12.631689930053298 -1 0 -1
617 1 3.689701058722103 11.286271384476791 13.313146499030568 -1 -1 -1
113 1 5.681760365623171 12.212283025650352 14.791897452845243 2 -2 0
546 1 4.7826976571892885 11.844117082256615 15.522231974773055 0 0 -1
1882 1 6.990054553449043 12.338987493839294 12.876895860616601 -1 0 0
3285 1 6.943733120967767 12.990945917070988 15.783269683396037 -2 0 -1
833 1 7.516784210784504 12.942310597781855 13.882173279881112 0 0 -2
1022 1 7.456442594276194 13.25022678926728 11.292109072405227 0 0 -1
275 1 9.565859543996044 12.49260475498102 13.157758155354454 0 0 -1
5 1 10.232562103268563 11.89711131959464 13.763817962022621 -2 -1 -1
835 1 8.623948904280056 13.033814703926039 13.65367457854951 -1 -1 0
1269 1 0.8239255685827509 13.937567417962802 14.862655240634135 1 0 0
3309 1 11.218089830816378 11.226228025081012 13.626238045832192 0 -1 0
2247 1 10.767625158243801 10.597525484056986 14.288326252259509 -1 1 -1
997 1 11.056128368126386 12.466773828788325 13.28018266913511 -1 0 0
1840 1 1.6341694123052286 11.999945272072985 12.984521545854983 0 -2 1
3727 1 0.4175223313816665 13.025347881677638 11.421099814447476 -1 1 0
1442 1 1.9803269190594848 13.014886794450309 13.042094585535672 -1 0 0
944 1 2.2326036655582127 13.959214043120573 13.669987386138953 -1 0 0
794 1 4.113927912507579 12.45216161384178 13.054637114582235 0 1 0
1832 1 3.3819089890080596 12.166702141198897 12.23196139968532 -1 -1 0
1046 1 4.579067023512133 13.671856664239801 13.672658430232994 0 0 0
9 1 3.467175232998935 13.539213934367679 12.787852858184754 -1 -1 -1
123 1 6.898374999343226 11.933025159604016 14.005356747283278 -1 0 -1
545 1 6.038983555241884 12.523570950903778 13.397687239710404 1 0 0
3295 1 6.050476960974427 14.692726702422052 15.049111550123056 -1 0 0
741 1 6.739870918782724 13.522878362557039 13.020753252510206 1 1 0
315 1 7.812585502879601 14.863204765132158 12.015373504922625 2 0 0
3747 1 9.179870402225955 13.601863970956746 10.963832148235769 0 -1 0
2455 1 9.04923367564728 13.72986540137795 13.100834967418711 -2 0 0
2022 1 9.906989748469728 13.434852705779836 12.480628854605342 0 -1 0
1910 1 0.052442517131113586 13.794016896424086 13.990823623066307 0 0 -1
2117 1 11.38103528222096 16.07797171569846 13.186938084911024 -1 -1 0
3592 1 1.3042631647165863 14.92646281594872 14.773411859777317 -2 0 0
3108 1 -0.345373572229018 15.424774858571523 15.455602054547077 -1 0 0
3555 1 -0.1986884307350154 16.26774103424762 16.18915189526703 1 0 -1
902 1 1.2818379960458612 15.827532627216014 13.967774910340854 -1 -1 -1
2084 1 -0.2326775808682069 17.48659160138584 14.463100232739597 1 0 -1
2892 1 1.7196238657623475 14.260638967426704 12.849256072227426 -1 -1 -1
1090 1 2.5344996164569507 13.471945172278078 12.205662981296602 0 0 -1
2476 1 3.5005870345921117 14.14877217355252 13.62054715851602 2 -1 0
2483 1 5.89160705630188 15.984062395437737 14.468070223547494 -1 0 0
3439 1 3.159115859117244 15.158615455087114 13.913408154585698 0 0 -1
2388 1 5.80936005125665 15.60275018697538 15.664676695417095 0 1 -2
2970 1 6.77006747553485 15.333949939361082 14.85447850120955 0 -1 0
1867 1 7.028674848167224 14.996795308999042 15.806694928493224 0 0 0
783 1 7.032861068033078 14.072622791058429 13.985207833899846 0 0 0
2708 1 8.011436441323205 13.92522981853392 13.417354583440574 -1 -1 0
3473 1 9.07827826170786 13.53975643874001 16.254076237778307 1 0 1
3528 1 10.2639634485421 14.173551081780865 13.461856665554514 -1 1 0
3064 1 8.93484188015247 13.614851720199542 15.316498883671121 0 -1 0
1131 1 8.429901788684067 14.60338465227897 12.776272537220098 -2 -1 1
638 1 -0.06634883940325964 15.417978601113996 14.14842411360337 1 -1 0
1801 1 0.39837577673676594 17.216762046266254 16.317501899896726 0 0 -1
267 1 -0.38134546925634105 16.486295654044802 15.114426618921987 2 -1 0
2089 1 0.36304641809912086 15.50213893671138 13.066058978373933 -1 -1 -1
1813 1 2.2300094613465373 16.406509341846217 14.175031186213223 1 -1 0
106 1 3.6403331761085234 16.376751325083184 15.821888144499182 1 -1 -1
40 1 2.9621461751783973 16.03509934164284 15.033553094423093 0 0 -2
116 1 0.27118664019124705 16.378488843351057 14.289273528126875 0 0 -2
1236 1 5.672070382582649 15.153588794061305 13.014673382927057 -1 -1 -1
2219 1 3.763710279590639 16.991391259409646 13.196830281795012 -2 -1 -1
791 1 5.613103056248749 17.257069312041203 14.165719613952097 -2 0 -1
2938 1 6.731127237809625 15.881230756426605 13.677451876591467 0 -2 0
1918 1 4.8135900574906945 16.96494152212857 12.950144329956233 2 -1 -1
2252 1 7.119463819132996 14.75423841684126 13.095041612406334 -1 0 -1
3355 1 6.798275556239648 16.821564397077466 13.181971828880277 -1 -1 -1
2922 1 6.7825594777733755 16.31200753088558 15.682520305251229 1 -1 0
1878 1 8.963606323381672 15.808166168912772 13.496235684759071 2 0 -1
103 1 11.158505403518099 15.109810982673158 13.802082180720143 1 -1 -1
2364 1 8.823312887002585 17.463837021929315 12.21575200995033 -1 -1 0
2026 1 11.34224520337782 16.829668079344124 13.974324045073688 0 -1 -1
945 1 11.305936702528186 15.692034407900968 14.585434579801513 0 -1 0
3212 1 9.901898646100841 16.591773287449982 15.975546258169578 -1 0 1
1473 1 10.223881382960002 16.32670406391143 14.991327507717399 0 1 0
2127 1 -0.11185544542921366 17.869527249540525 12.230690475521381 0 0 0
2656 1 1.2356363694954307 16.857737562372243 13.372532656030986 -1 -1 -1
2652 1 10.899473079145725 18.00521073827914 14.018590643064197 -1 -1 0
1148 1 1.0565706931195578 17.995767620384648 13.824297181889778 0 0 -1
3760 1 3.430159314677585 17.949460935743595 13.685561258887804 0 0 0
3877 1 1.5485725040008829 17.123469188540007 14.347704751061004 1 -1 0
1483 1 2.7710447683789625 17.29683996916097 14.633779645862662 0 1 0
2188 1 3.5501475699348335 19.194604313877974 14.19040582253032 1 -1 0
3560 1 6.564488327567928 17.812748338942953 13.556354091638923 1 0 -1
2919 1 5.8631269296846655 17.39233548361434 12.909498371330915 1 0 0
1595 1 7.331297029973541 15.756277228528552 12.866932656949878 2 1 -1
1411 1 8.007100977624678 17.80849712319938 13.343297983900616 -1 -1 0
304 1 8.671177942873221 16.176103449327393 14.52738304193729 -1 0 0
170 1 9.344324631359555 18.42557007591511 14.212471840911576 -1 -1 -1
3316 1 10.334696076335652 17.14493904621569 14.233902345867111 -1 0 0
1324 1 -0.45197349177770285 19.756159928027685 11.430987467634193 0 0 -1
3836 1 -0.754636547872875 18.758014787656265 14.303082831931167 0 -1 0
3071 1 0.3234033964353591 18.82796688395552 14.528992797442545 -1 0 -1
270 1 0.9406692139285713 19.217916080007342 12.816636859646383 -1 0 -1
2722 1 1.503656212420231 18.06221141797505 14.940870290371988 0 0 0
1961 1 2.311174296140913 18.360788083977518 14.348163979743171 -2 0 0
2353 1 2.1784938484945267 19.188048011637008 13.763653657016139 -1 0 0
2768 1 5.9494203128480985 18.72557639255824 10.354117677721817 0 0 0
1895 1 2.903834211066877 18.540178038514924 12.884802073831615 -1 -1 -1
2544 1 5.159474776175206 19.094180614312513 13.207408730380566 -1 -1 0
2855 1 6.710167753066961 19.312348431728196 13.23851410048358 0 -2 0
2590 1 8.297967528800118 17.97397261506471 14.49938246732878 0 -1 -1
434 1 7.164811251109837 18.303473895379994 12.996219268747886 1 -1 -1
2756 1 6.129843350061012 18.680417861444532 15.732433687492177 0 -1 0
1973 1 7.646697141106497 -1.3251442209667 12.86987634526378 1 1 1
24 1 9.075173405317301 19.431079571235834 14.032140264631087 -1 -1 -1
3463 1 11.371931177346255 19.589667031441813 12.655420606217195 1 0 0
3983 1 8.230639387533316 -1.011739290001878 13.976751294207341 1 1 0
3984 1 -0.41509555086370975 18.610349840869176 12.99578973613012 1 0 1
3153 1 -0.41168411412394457 -0.7721376743489761 13.68512313971591 -2 0 -1
1248 1 1.0095964610361736 -1.2645526341766231 15.566596321676416 -1 0 0
3643 1 0.8467520703441656 -1.5141905069629482 14.491623213985427 -1 1 0
1333 1 0.5285936826584294 0.7188464406687327 16.31507841279346 0 2 -1
3074 1 3.822546456361252 -1.0443605338087254 14.48028749022278 0 1 -1
1282 1 4.016033834456371 -0.9892392193712634 16.66342389826228 0 0 -1
3296 1 2.5785698746766865 -1.1050640868915482 15.196828416250677 0 -1 0
847 1 5.205197601225628 -0.4260085657981054 15.198785858787899 -1 0 -1
3545 1 2.7682827697036734 -0.2833634991564402 15.834483442918616 0 1 0
1759 1 4.6610926194303675 -1.2284696320978472 13.628242974740013 0 0 0
3356 1 4.487650053897561 0.004525740848828841 13.73132694892771 1 1 1
1897 1 8.782126133307747 0.579855520137321 14.786265984383869 0 1 -1
1234 1 6.262797033703113 -0.9391922773242657 13.854133235557738 1 0 0
2732 1 5.453012027316959 -0.014340416781772003 14.14931627531139 0 0 0
102 1 9.729066989538612 0.8249484339518705 15.14672998946988 1 0 -1
3085 1 9.373225059265815 -0.35096496285700773 14.607649171474973 -2 1 0
356 1 9.50378654222756 -0.5141623819962591 16.98289352804293 -1 0 0
1876 1 10.59711780930102 -0.5836536129404415 13.894034789757367 0 1 -1
1213 1 11.352330142498888 1.1266588917382596 13.810687614706355 -1 1 0
1336 1 0.0512016475116418 0.38712917734543884 15.084261794993362 -1 -1 -1
1353 1 0.3142617460599706 1.8644882812577532 15.062448416622908 2 0 -1
1778 1 1.7086320144604201 0.4434692852240696 15.8905382084884 1 0 0
1197 1 2.5862380141030834 0.3569385078738807 15.069476005163237 -1 1 -2
1538 1 2.965825868577747 0.8655002553593572 16.086001311115147 0 1 0
1451 1 2.503346525447138 2.2064732752559526 13.213737375550307 0 1 0
858 1 2.513593794892719 1.5021029775883723 14.117757637286687 2 0 -2
884 1 2.903420652334831 2.3082638535973885 15.777812351266336 -1 0 1
753 1 5.386103370489887 1.5027139642946405 15.316316859461294 -1 1 -2
686 1 3.468339569357955 1.4251395070551949 15.325473716080678 0 0 0
493 1 4.496115868974619 0.0730550534338652 16.972944116277873 -1 0 -1
1516 1 4.45967809018264 1.0767052281286795 13.596870849087326 0 1 -1
2789 1 6.675629235931722 -0.7507489606967955 14.979976534584706 2 0 0
3046 1 6.3405920541642375 1.2324586086065916 15.10958324615243 -1 1 0
861 1 9.031715145749112 2.2381227663390306 16.42034776584208 0 1 -1
2135 1 7.445546846403289 2.423825819317681 15.251751360505763 0 0 -1
3945 1 10.73890483066587 0.6460664754764198 14.495875935559576 1 1 0
3735 1 11.28996107214171 -0.2977755348656048 14.701494303590382 0 0 0
3905 1 -0.029194600661370806 -0.6340466037601002 16.735513008854944 0 1 1
2896 1 0.42616047896311926 1.5060292463689198 16.984475419685502 -2 1 2
1288 1 1.390333148490157 1.938436765453997 15.735039999287944 0 0 0
3362 1 0.17727482202209854 4.315284724629392 16.470100470677224 -1 1 -1
536 1 0.8808375084414028 0.9411819575997349 15.36310163617034 2 0 0
1292 1 2.1608790276334977 0.1270488611831342 13.919128859753437 0 0 -1
195 1 2.2794761515373643 3.106476306806182 14.02059500290674 0 0 -1
1206 1 3.4785675026554896 2.134260001140339 14.36192798366654 0 1 0
2155 1 3.936935083261317 2.0774359786976935 13.238923718834345 1 0 0
3274 1 5.089667104979838 2.5982800080903585 16.27622133387269 1 1 0
646 1 5.5207028530492686 1.0378864001219799 14.329119775775336 0 1 -1
1610 1 6.287701196094744 2.4088933526008747 15.743322765224027 -1 0 -1
1062 1 6.6417026967497055 3.3310621571874925 14.94941904425398 -1 1 1
3911 1 8.213608862215333 2.5174065307303293 17.12300020029398 -1 0 1
1283 1 10.362724823698652 1.7009999272558427 15.243838693198922 2 0 0
1141 1 10.891132933036259 4.499275580024789 14.791209927586722 -1 1 0
2580 1 -0.6827434815021285 4.840936410824568 16.61544455484428 0 0 0
379 1 -0.2805750916481575 4.5114547794892825 14.692746411565063 0 0 -1
1240 1 1.367297141965294 5.6463996768953155 14.326952811848319 1 -1 -1
3258 1 1.3580036364822385 3.980884216436144 13.86664799521967 1 0 0
572 1 0.5331076141641002 2.897923042541664 15.21928753215895 0 0 0
2374 1 1.194515588696694 3.074519584235677 14.52140501215209 0 0 0
3336 1 4.962826825198079 3.96478259219633 13.23513335592298 1 0 0
1765 1 2.9913845989753454 3.2204462050678773 14.80138778165979 3 0 -1
816 1 3.0990051111125014 4.116189350206792 15.22933460224562 0 0 0
786 1 5.664585423815599 4.814016080433125 12.869237686554191 0 1 -1
3010 1 5.710057678009599 4.07121557885624 15.088002851421257 -1 0 1
184 1 4.443487599029676 4.070184209112673 15.251140579679747 -1 0 -1
1754 1 6.566784193051042 4.731932544539988 14.878391511584548 -1 0 0
193 1 6.9178191520764685 3.4633954526721222 16.520505829978696 1 0 -1
893 1 10.050575018086407 2.26951392293493 16.313532684529974 -1 1 -1
2441 1 8.699034241895689 3.8104764631350436 15.639423908982595 -1 0 0
1087 1 11.14220594564995 3.147683805757034 13.674511824328212 -1 1 -1
2668 1 10.15581180766507 2.8339907471337042 14.147390893367835 -1 2 0
2217 1 -0.06794201934999422 3.1772962250297976 14.427368193589428 0 0 -1
2321 1 0.7416259755348149 4.626789252545197 15.731968275447125 0 1 0
1818 1 0.11852883361628264 6.029127522166182 16.600137756157217 1 0 1
664 1 2.2890568345752484 4.4550570657957484 15.821861897260787 2 1 0
3657 1 1.2971955406558036 7.511624487633661 14.51137175541944 0 -1 0
3497 1 11.161572270219125 4.366636541298929 17.519602245290223 -1 0 0
186 1 3.878589681269112 3.127081457686854 14.29390054293483 1 0 -1
2348 1 1.8000128142163416 3.8593215272634147 14.945806067434694 0 0 0
1879 1 4.18558913491772 6.347956430287552 14.263344185483653 1 1 -1
87 1 4.898489331007233 6.8974256735792085 14.470136998347146 0 0 0
528 1 4.088114666704322 5.839298561171516 16.28190887479176 1 0 -1
2550 1 4.63186002768101 6.233198857900364 15.345318275638475 0 0 1
2828 1 6.9404262377591595 4.478895131795006 13.624919399254535 0 0 0
3628 1 8.855734600442384 1.6383223136261877 14.94094742449162 1 0 0
1681 1 9.302767693201904 6.231771000778255 15.440029545880241 1 1 0
2334 1 8.168289365403052 5.349178154614357 14.054930987030195 1 0 0
3256 1 10.224297541381894 5.031020785839745 15.341071512411167 0 -1 0
531 1 11.359750318094136 5.647075393450124 15.234389617346936 -1 0 -1
632 1 9.242043214715306 3.503799375794488 14.750399156552065 0 0 0
680 1 10.225086421823388 3.212627252224795 15.144577847290646 -1 0 0
705 1 10.750102311208325 4.782942631281952 16.196116175319723 -1 -1 -2
3082 1 9.916493643135851 4.075835405064882 15.509760182826303 0 0 0
1617 1 0.6060949680315648 6.657659479635548 14.201015479757334 -1 0 1
3358 1 1.6864599185338522 6.203500520765105 16.309942842563224 0 0 0
1169 1 2.8378985080501082 5.4149844683726265 15.467274819037202 0 1 -1
558 1 2.342037427105329 6.217076948057122 13.808661799237575 2 -1 -1
416 1 3.3685487426542835 5.618430023719885 14.160712612964755 1 -1 0
1634 1 2.5610135426382303 7.374691635038742 14.34031853920655 0 0 -1
2536 1 4.94960278825404 7.442882188972215 15.485003532659936 -1 0 1
1218 1 3.1778772380588274 6.461711019841445 14.806573076647817 2 -1 0
2648 1 6.441110861568066 7.326258702954398 14.626201762324174 1 0 0
3751 1 5.789495281055872 6.543147696872159 15.229492564659514 0 0 0
2961 1 5.389546376471336 7.804022414050092 16.48795728749885 0 -1 0
2330 1 10.66751385302631 6.601911269932565 15.663053993253344 0 0 0
3039 1 7.641361492107272 4.915387079023273 14.834413945333578 -1 1 0
3263 1 11.076488795846672 5.877700388992814 16.400186663934434 0 0 0
2295 1 9.884698229702218 5.642928650370534 16.18412110397717 -1 1 0
2254 1 -0.5577378140889266 6.4290766465580935 17.439553164160202 1 0 0
1647 1 10.869892707508791 7.479058568746231 16.290898759809863 0 0 0
165 1 0.7631891369555057 6.340476962472436 15.499858538007379 1 0 -1
388 1 0.3114945651654677 7.668478401648807 14.443273161561875 2 1 -1
659 1 11.235201973403779 9.77794622828349 14.253261708204183 0 1 -1
3894 1 -0.23175963086367324 8.83668607883318 16.446632608492003 1 0 0
3953 1 0.04801575402077585 10.114775207847384 14.495847071741395 2 1 0
907 1 1.5873020403758726 8.964633308806281 15.830749681400375 0 0 0
3031 1 1.5329368493842863 7.010754593318744 13.566647822312405 0 0 1
1035 1 3.9013311669257487 8.525115810460541 13.746205544500105 2 1 -1
626 1 2.5120148439206944 7.527316065049549 15.3685683360755 1 0 -1
3211 1 3.6404686161918374 7.4873589281859285 14.704647851105582 0 0 0
2630 1 3.598511022531353 7.535314922360788 15.811481518529044 -1 0 0
2797 1 3.1883013031450425 9.242697317771492 13.503110387967292 1 1 0
1585 1 5.225446900226587 8.5490872038312 15.68622462041172 1 0 -1
2751 1 3.7048306245180127 9.301615951449483 14.536526312571507 0 0 0
2265 1 5.8637148722532775 7.971099422619874 15.146675801723232 1 -1 1
1198 1 8.867173388113493 7.894313117689652 14.169170463784042 0 1 -1
1499 1 8.316520969983344 6.661206933707634 16.916396860445488 2 0 0
423 1 7.697686682702825 6.975264221733216 14.80772835086041 1 -1 0
519 1 7.326986298324604 9.299809856852665 14.609480558784911 -1 -1 0
644 1 9.72777385764007 8.371455605413578 14.411400736149568 -2 1 0
3882 1 8.938156364219338 7.475061754337963 16.481331712024854 -4 0 0
2818 1 -0.8205642226142411 8.011078543756497 15.68221054474522 -1 0 0
2515 1 10.19073910405058 7.808457171515322 16.850822451709824 0 0 -1
938 1 11.135986135436172 9.159373698982597 16.33678184514354 -2 0 -1
412 1 2.1240322106335885 10.486446335444002 15.889090757539192 1 0 -1
1525 1 0.8736450215899303 8.531813000757548 13.138387548669716 0 0 -1
976 1 2.0363075873564 8.369764951946241 14.72248810371274 0 0 -1
1510 1 0.9911520067047948 9.001032002505104 14.354706732768472 1 0 -1
2161 1 4.782796643341762 8.884924857017749 13.786026716940011 1 1 1
2606 1 3.2594108929296244 7.939206107101015 16.949017496371823 0 1 0
3794 1 2.7905933880608766 9.81909483715936 14.332989839045112 0 1 0
3921 1 2.920026909385007 10.759468402644375 15.289710784389547 0 0 0
3558 1 5.1232225902461295 9.843211192861872 13.369654148269895 -1 0 -1
604 1 4.170202936427929 11.05239449500649 14.312863582156762 0 1 0
605 1 4.3667386201243605 8.823166119367766 15.171147997166008 -1 0 -1
891 1 8.486306883053865 9.874479355774353 14.624459317285554 -1 -1 0
98 1 8.274353101090307 8.764420137632689 14.666009697343492 0 0 -1
910 1 8.714366828693032 10.600930324883135 15.722647285921978 0 0 0
1152 1 10.330717315852956 8.870958929420816 13.701479511475593 -2 1 -1
2589 1 9.769119075383035 10.14071429811355 14.801824585100432 -1 0 -1
2733 1 9.802825708400656 10.826078612244782 15.670080949846389 0 1 -1
2134 1 1.4446563863459807 10.382031747340005 14.995401941089321 0 0 -1
3665 1 0.5313681392461262 9.797278960389175 15.29108860065922 1 0 0
2629 1 0.7124568272707135 12.485749940170225 14.878890160726625 1 0 0
3397 1 1.6034437963902728 11.289261782333718 16.465200657873453 1 0 0
2577 1 2.3456910296615887 10.332475144731172 17.11082253182287 -2 0 -1
2414 1 2.6162476034103532 8.32455827262845 16.15483304444838 -1 -1 0
1987 1 4.437918589042156 10.67206480413249 13.441722217272861 -2 1 -1
3748 1 6.2225474721380785 9.277574875085394 16.311402758126874 1 0 0
172 1 4.915966545322969 10.893182193605544 14.974234859857292 0 0 0
1031 1 7.479534851424866 10.320093782345303 14.728191747574085 1 0 -1
3479 1 7.89724558937864 11.324054501179157 15.253382639069374 1 0 -1
3681 1 7.7459353094354615 12.026357271632882 13.522431641993508 -1 1 0
3330 1 8.271385004763886 10.834636879320458 14.101377683696963 -1 -1 0
312 1 9.051862672371039 11.919057124403917 13.826290020693133 0 1 -1
1100 1 10.956312713512242 11.211465428582619 15.497438856648442 -2 0 -2
3502 1 -0.3010831820168379 12.01190520308084 13.91044819581746 0 0 0
183 1 2.9427063371289606 12.889589845300096 16.41131687329611 0 0 -1
1618 1 1.425588849935949 11.502807615284581 15.448386032742066 -1 0 0
2458 1 2.810586832955361 13.018954924320932 13.606749069253647 1 -1 -1
509 1 2.620126171441193 11.307583679631739 16.478523729277313 -1 0 -1
683 1 3.832729080629697 10.159042660492382 14.955003080997882 0 0 -1
1400 1 3.625685283705111 11.775002697485743 14.85583869115298 1 0 -1
2625 1 4.62956827405121 13.230840165847004 15.10403893630705 0 0 0
2948 1 5.579936249593532 10.562973938032561 14.107473634804027 0 -1 0
764 1 3.080864589973982 10.72130855631537 14.151904424429382 1 0 -1
16 1 4.702904348237543 9.91658490318941 14.391092687571875 -1 0 -1
980 1 5.965431753132827 11.835441332629978 15.818446681045481 0 -1 -1
3629 1 7.908987469421602 11.897408624454968 17.547059318696164 -1 -1 0
2771 1 7.543023630745806 11.611930673543174 16.552740772086423 -1 0 0
277 1 7.845026260488456 10.760262927129453 16.172659399103864 -2 0 -1
286 1 8.284891997233451 12.046409556589253 14.53615006279342 -1 0 -1
1134 1 1.4918828882791564 13.132974576692467 15.337397118667967 0 0 -1
3799 1 8.92796068953351 11.58412425567941 15.626149732915705 0 0 0
2655 1 0.9535291315626049 14.115275336774248 15.939904916589734 1 -1 0
1772 1 2.5641818393414098 13.00687903682731 15.46237002861683 -1 0 0
1830 1 0.7867300083025175 13.653660037262274 13.192779175090529 1 0 0
3581 1 1.6172738265283542 13.10752174730968 14.14545453720266 0 -1 -1
633 1 3.8870067340155456 13.764072733528067 14.627154582133313 0 0 -1
424 1 2.904572985438288 14.792959661291258 15.201854361632 1 -1 -1
2526 1 5.132762256037408 11.517199930893538 14.247591065661728 0 1 -1
2236 1 4.917203094088443 12.672222628203816 14.000240966235811 0 0 -1
438 1 7.037361530370374 12.105056350087844 14.960124577366278 -1 0 -1
476 1 5.0291381680373295 15.776007606829728 14.871496822354944 0 0 -1
725 1 5.040428399685891 12.12933788264225 17.03446398024864 -2 0 0
2709 1 5.630588094704992 13.646257764875713 15.786757736997261 -1 1 0
2002 1 8.079248223338569 13.320379448146355 14.669904225125284 -1 0 -1
1361 1 9.511867753870941 12.531990245847409 15.517188552581858 -2 0 -1
1605 1 10.128232489020917 13.533738469803955 15.145343252767587 0 -2 -1
2190 1 10.65433065911421 13.351286747081659 14.16006198142459 -2 -1 -1
3723 1 11.246316937102247 13.55990524373303 15.30499979666889 -2 0 1
3550 1 -0.24242209975223905 14.46427254631497 14.961367113337092 0 0 -1
576 1 11.083316134033723 16.324378787581402 15.579081971433295 0 1 -1
3515 1 0.6602189150231577 15.322585526297802 15.693111593491848 2 1 0
851 1 0.48019653565744846 13.32487549325359 17.019367093931095 2 0 0
1250 1 -0.1957134878717267 15.00922651221529 17.24197597245302 0 -1 1
2763 1 1.8868127658196387 14.082052697671097 15.491396380729737 -2 1 0
3938 1 2.170795101640698 15.505047899453055 14.589040430828126 0 0 0
67 1 4.835875873773382 15.000856535266566 16.74232459560912 0 -1 -1
1978 1 1.8714837895746648 15.305912144485914 15.59590947321128 1 0 0
175 1 4.02025997276003 15.84567978939923 14.782458359442705 1 -1 -1
148 1 3.8771644350277397 14.763293178873274 14.463183189787799 1 0 -1
2969 1 2.9136780369957607 13.878099519949767 15.96171468032338 -1 1 -1
530 1 4.995319520586915 15.874418184404492 16.186267240921552 0 0 -1
2724 1 5.563238861760569 13.275501416029813 14.660972182553634 -1 1 -1
3017 1 6.581910082852876 12.897609215289497 14.548697069714597 0 0 -1
3958 1 10.249316120938513 14.741237160470591 14.466421243728163 0 0 1
3328 1 9.62815843290861 13.632262473756946 14.131490330517776 -2 0 0
553 1 11.442566491635102 14.021347060870891 14.065120843957414 0 0 -1
227 1 10.053726548422238 15.2459870205111 15.5354750847288 1 0 -1
3088 1 10.807646328061287 14.497674942127508 15.461292392940452 0 1 0
3832 1 11.303578891007763 17.404708404508625 15.999771093756335 1 0 -1
285 1 10.797838330477493 16.45627364542363 16.561070026823593 0 0 0
456 1 1.3205217205452082 16.076469511934064 15.185709263622671 0 -1 1
1337 1 1.4003098751665446 16.834424677428835 17.0891773243979 0 -1 0
3054 1 -0.4408415962919347 17.317523443226747 17.030203303017984 -1 -1 1
1055 1 2.8436388705388604 15.501132360750136 15.971077121243534 1 0 0
3343 1 3.452124901184815 18.43355932385689 14.970856109825261 0 -1 1
138 1 5.2193427187862245 17.696384560143464 15.056433690896602 0 0 -1
213 1 5.821494176835461 16.626199990177838 15.305634318058138 1 -1 -1
3065 1 6.487138263786536 15.80257763172777 16.538457429826003 -1 0 0
3157 1 5.6350221806684555 17.77605931639325 15.971913864404081 -1 0 0
3139 1 6.555488443108007 13.875974454519557 15.34596961683589 0 0 0
3508 1 6.0628098038292 16.08564573911051 17.59796395554858 -1 0 0
274 1 6.598884697443878 16.665955732534094 14.655527042898308 0 0 -1
1680 1 7.800156170677255 15.86925598521791 14.78806469944522 1 -1 -1
1786 1 7.443988771880592 14.955692117223643 16.86337278275402 0 0 -1
2779 1 8.939566148747344 16.156712272761958 15.49089391743748 -1 0 0
736 1 8.664468129121975 14.66767375505968 14.663624703945247 0 0 -2
344 1 -0.541761865593535 16.155245132756065 17.115746087953625 0 0 0
1735 1 9.642459200485522 15.641747205047173 14.447575293466532 -1 -1 -1
665 1 -0.07863319939504876 19.494621705183143 13.682688582584715 2 -1 0
2895 1 1.1564683264251578 17.800470403291335 15.925054107529606 -1 -1 0
2343 1 11.35429276842505 18.33908577627676 15.402638684299587 -2 0 0
3612 1 0.7660214190536778 17.321219646368917 15.151748753471606 1 0 0
1120 1 1.0061396884201723 16.472320257530725 16.130963187127755 2 0 -1
3968 1 2.0183200069889344 17.221209643893822 16.122346658135008 0 0 0
97 1 2.1535281856353734 16.548777443559658 15.146650830905378 0 0 -1
3417 1 4.6312018520942395 16.961387868292135 15.935145388767838 1 0 0
2066 1 4.417804054673073 17.97178408812934 15.848626277261621 2 -1 1
3314 1 8.387689509750372 16.315431686094023 16.56100128689838 0 0 0
2539 1 4.163988202771764 18.710585734550875 13.48596050796288 -1 -1 0
1183 1 7.33700438049298 17.69926669051916 16.327283969340897 0 0 -1
830 1 7.602457822355072 17.61337946332624 15.163986135167919 -1 -1 -1
1531 1 9.119872471996482 17.209815875648424 15.860910225011947 1 0 -2
2806 1 6.365671561648733 17.809365195478605 15.009730380403065 0 -1 -1
3172 1 10.014462147957259 16.306080083414763 13.679269281963167 -2 0 0
2929 1 9.739895454785428 19.121568076147653 14.972630539759072 0 0 0
1058 1 9.340942223132002 14.769939858849972 13.806636657460606 2 -1 0
714 1 9.435705644211668 17.352339704910364 14.829398866197979 0 -1 0
2790 1 8.437422702269053 17.026077141510434 14.873764553511718 -1 0 0
467 1 10.093164237474872 19.24933604241268 13.97981613927994 -3 -1 -1
2490 1 0.023254893085707495 18.14961458610815 15.251491240632154 2 -1 -1
845 1 -0.03320184034895346 -0.6164639737106126 14.725017914791755 -1 0 0
1861 1 -0.34212361453465145 19.149240805197287 15.358841004857238 0 0 0
640 1 0.975734682517488 18.836585261002767 15.565705548343063 0 -1 0
2361 1 1.871080025638936 -0.335250073511248 14.95019266815399 0 1 0
529 1 1.8540736271100533 18.78096476945391 16.174205513731323 0 0 -1
3126 1 4.456637940112961 17.896263481428207 14.396729659502348 -2 1 0
2730 1 3.9039547103037053 -1.0023960816013961 15.652412610784436 1 1 -1
3311 1 5.266856889760591 18.342619659280565 13.865033617734616 -1 -1 0
2177 1 6.149626636416871 18.691146169422453 14.232805384752824 1 -1 -1
3381 1 4.555885937654483 19.312868584018183 14.319527465076723 -1 0 0
567 1 7.245473068750957 -1.46659570382384 14.054131895254699 -1 1 -1
3443 1 5.299412289174803 18.80381923817533 14.98132289994774 -1 0 0
2175 1 4.612756174693155 16.55671358183848 13.968533842677878 -1 -1 0
2800 1 7.842227103076679 18.881383877704828 14.923366778264255 0 0 -1
913 1 8.108311672469535 19.08581027853213 14.025245740900287 0 -1 -1
757 1 7.59305296532151 -1.280810010531865 15.134134631345047 0 1 0
2411 1 9.552993648780976 -1.0233080501686833 13.916202394763008 0 0 0
2087 1 10.098479548802546 -1.2599972953521759 15.052786616940525 0 0 0
363 1 11.156185481952893 19.79256706145366 13.78460339810684 -1 -1 -1
477 1 8.998660252909765 -1.5209534053864664 15.12847414205479 0 0 -1
2133 1 10.5026646014224 -0.3088700678671541 15.265538938761212 -1 -1 0
2449 1 -0.14626094354618346 1.3409115710991215 15.890488033977208 1 1 -1
3464 1 11.39811261196694 0.9262328648359013 16.496417505584866 -2 1 0
228 1 1.8567063778424036 19.351693939282313 17.487619534497 1 -1 0
1063 1 0.8175868405254318 -0.18311176473521407 15.505995265783033 1 0 0
2864 1 1.9053190804496785 19.65447602872819 15.807057876715591 1 -1 0
3759 1 1.8794898440926566 19.10705860257456 -1.4266852488465886 1 0 2
2281 1 6.641418022276405 -0.15087920918405207 17.83460448242704 0 1 0
1143 1 4.563038948988523 0.9961858276745073 14.931373396269388 0 1 -1
1344 1 6.657035223096415 -0.8109826845261457 16.148236835427277 1 0 0
80 1 4.933995160711166 -0.7500198581525659 16.42937526292701 0 0 -1
2003 1 5.1974098158668305 18.516777651008688 16.387735348714543 1 -2 -1
367 1 5.786057086841912 1.543951433210779 16.22398841361246 -1 1 -2
8 1 6.540721569030965 19.33145688393372 15.079384867485233 -2 0 -1
2367 1 7.982177935531389 -0.9865531153826445 16.194097083572387 0 1 1
2439 1 7.392229759309414 0.8368382105613534 14.717720400199331 -2 1 -1
3416 1 10.361556992686003 -0.2702470376788624 17.392273153504966 -1 1 0
2405 1 10.253914929153098 -0.6247976062824936 16.269488580520743 -1 -1 -1
1056 1 -0.6866994062054642 1.1586204939268092 14.87767422047977 -1 1 0
81 1 0.775899946420632 1.6120927504298814 18.114587667277476 -1 0 -1
2870 1 10.989179923227352 1.8720891669433697 17.044750349511148 1 1 0
2684 1 1.2909584418410232 0.905659817132308 17.122341758207412 -2 1 0
359 1 1.1367397853314194 3.0940371904120685 16.018989487927655 0 1 0
2833 1 1.7871247220601627 -0.697503295930806 16.050052477786387 0 -1 -1
708 1 -0.4577699731412616 2.528443978751822 15.341581198288578 0 0 -1
3272 1 2.7030902194436486 1.0319916845977297 17.131973136478734 0 0 0
2853 1 2.990912325364713 -0.3394316419754011 16.792337502793437 1 0 0
54 1 2.0296491802785392 0.1166173420923029 17.03906910916239 -1 -1 -1
2231 1 4.835226905943259 1.0071611114060706 16.06636753479195 -1 1 0
2270 1 2.7431345159205978 2.326939858312109 18.013264818996603 -1 0 0
715 1 7.015194212186198 1.4406705133498394 16.272791962308617 -1 1 -1
1652 1 5.8926117146732215 0.07111823843419218 16.634322293107985 -1 1 -1
3032 1 5.348433376700279 3.2262968487217263 17.05083350615599 1 1 0
1704 1 7.886638147161369 0.5191434208761083 16.80601040233227 -1 -1 -1
241 1 7.493632122537518 -0.008532801512346255 15.884869934848458 0 0 -1
3932 1 8.530175309104202 0.19990598947201121 15.740042997052475 -1 1 0
2111 1 8.959439176247871 0.6929754693049186 16.638062368768352 0 -1 0
3687 1 8.284027721466634 1.4668893037083692 16.484724401762286 -1 0 0
1045 1 9.549641184548316 1.4284130050851762 16.002734017013978 -1 1 -1
1346 1 10.870433879053019 3.2825244104091604 17.382335842846956 1 0 0
612 1 10.554173393269993 0.8485750593935526 15.830149416625575 -1 1 -1
2901 1 11.273785213118149 1.828839675329093 15.790108028308763 0 0 0
3613 1 -0.1580806695518846 3.345373964350717 16.036777095791386 0 0 1
514 1 2.3206315579588437 1.5443051978110511 15.380892466025566 0 0 -1
2373 1 1.9945687638857978 1.7266625263688686 16.485751007582316 0 1 0
761 1 1.9738211591640336 2.7965277291624826 15.423920826235447 0 0 -1
1009 1 4.848170093122885 1.9611387037763137 14.49919827803537 1 1 -1
1445 1 3.733292992055918 1.3728660425561658 16.631010825051433 -1 0 -1
3772 1 3.683591774601303 0.24645560615592466 15.656574008647839 0 0 1
1391 1 4.299078398271916 2.005016825901785 15.610927351953508 0 1 0
470 1 4.980675193257868 2.8357119515426588 17.8724200952688 -1 1 -1
3784 1 7.173009906144184 2.1565922142037106 17.763365773008537 -1 0 0
1591 1 9.09343267239911 2.160826965618261 17.965169709206535 1 0 -1
3979 1 10.160966986257282 3.4670863885726186 16.350955469170678 -1 1 0
1415 1 9.561686489811969 1.6200193634033133 17.13691708192939 1 1 -1
3375 1 9.748217940800952 2.967276596131974 17.17368801985844 1 0 0
1399 1 11.439612229830917 3.8192141808106452 16.40897541903962 1 0 0
3901 1 0.32827918260228306 2.24291978805871 16.217665135328538 1 1 -1
2743 1 -0.7752211776810963 2.5770024446626074 16.538592929208292 1 1 0
2658 1 -0.37560561900310974 3.4097185992825496 17.45433745779369 1 0 -1
319 1 1.8413977970946132 5.456031926418849 15.455447183168241 0 1 -1
3238 1 0.8056640734680864 3.4101753391432315 17.08461837807775 1 -1 0
593 1 0.9817171889807634 5.116391398386763 16.73954350823196 2 0 -1
2879 1 1.7325121460403285 4.812399749159266 17.433659319210946 1 0 -1
2661 1 3.6799810021751806 4.6415822873725885 16.229059919125916 0 0 0
3852 1 2.7563342213159165 3.4077130763644403 16.095934678590176 1 0 0
3198 1 2.3283773075064396 6.397942993519494 15.366364320332687 1 1 1
3058 1 2.5933261795765605 4.181656280471819 16.827212249384978 0 0 1
3994 1 3.950596038002688 3.136260487170367 15.376356051428887 0 1 0
3483 1 3.821670532595352 3.5555128197687864 16.366306882574058 0 1 0
1849 1 7.212821396913956 4.114158747001574 15.652196151967365 0 0 0
1630 1 5.93726051182978 4.9376089896632305 15.781970601250135 0 0 -2
1440 1 4.827585150132425 3.952561068643461 16.35575437744872 2 0 -1
873 1 7.914386843984106 4.061577796440312 16.486395223333048 1 0 0
3864 1 8.20876650293086 2.9463344831754563 16.144610466057145 1 0 0
337 1 9.104898587179703 5.17542933133442 17.061342701931757 0 2 -1
1444 1 9.178214628487432 4.2974168857544495 17.623784282590286 0 0 -1
3576 1 11.013794402691923 4.228493394012525 13.782901772532394 -2 1 0
440 1 -0.6311035449323957 5.570511280742858 18.141271327591916 2 0 0
3299 1 1.4922307750043742 6.18169906492345 17.467440072101816 1 0 0
2438 1 0.040466148475955754 7.1896297755421195 16.732766519461805 2 1 0
1769 1 0.4537760981438257 5.993395235405273 17.61813187258217 1 0 -1
2529 1 2.0521783942654257 5.165039075029218 16.565231945253544 -1 0 -1
3964 1 1.735243975797177 5.451489114363683 18.528201533128275 -2 0 0
2311 1 3.35743480245051 6.444225609197865 15.874561953195785 0 1 -1
2142 1 3.900171166533619 5.303461387239238 15.245697742496985 1 0 0
161 1 5.749210780726065 3.36112074717889 15.9613948818175 -1 0 -1
2903 1 6.683112156881612 4.529874569928558 16.608012880715563 0 0 0
1469 1 5.395976987864309 5.705563206177402 16.21087451917758 0 0 0
3201 1 6.050181119665717 5.00153400716477 17.311317599861795 -3 0 0
780 1 5.144526843897682 5.116279168419271 15.006625418415569 1 1 0
867 1 9.506739361919642 4.201573173795871 16.622350009147 1 1 -1
1284 1 7.123887129112839 5.148833982417017 15.82143403226713 -1 0 0
3978 1 9.351306917383745 2.444439051710713 15.448474484752664 -2 0 0
1539 1 9.29091612431121 4.96444846676687 15.737015154151509 -1 1 0
373 1 9.069097280335297 5.113614116088686 18.282894993401406 0 0 0
266 1 10.882773599436838 3.0912066362417034 15.861161523017612 0 0 -1
211 1 8.586096676617625 5.7733856681852425 16.132153007708297 -1 1 -2
755 1 0.19470290594362516 7.490048047413971 15.753120552288282 1 1 0
3034 1 1.6527759762574608 8.017894650082157 13.64319471480122 -1 0 0
973 1 1.4846844367360648 7.4010664647049484 15.567119026379869 0 0 -1
3251 1 0.4735094059065823 8.55164518968955 15.718728209093305 0 0 0
1843 1 2.270343430073277 7.10183235748039 16.448758521026242 2 1 0
1367 1 2.515632690294081 6.1531222675289285 17.05030560159173 1 0 0
300 1 3.6716078207916265 6.966553419988669 17.13489129181714 1 0 -1
2758 1 4.850486801750083 5.852970170731849 17.303866537517337 0 0 0
3487 1 5.0063948556390345 6.800078631724059 16.62910827568843 -2 0 0
3631 1 5.066363362656657 7.63707480619613 17.578783935836697 0 0 1
48 1 6.264785323476241 7.39942237583692 17.058639358433247 -2 0 -1
1520 1 7.045988808390018 6.023800045973326 15.192538797100239 0 1 -1
1809 1 6.317015791167731 6.27899048119561 16.075397766306168 0 -1 0
3109 1 7.131575174579195 6.483262775366786 16.939427993841164 0 0 -1
2407 1 8.332074809848269 4.7904219844372395 15.717817284518015 -1 1 0
673 1 -0.6484366464791912 6.803722320140912 16.15645638824863 2 1 0
619 1 9.384729762723314 6.778199769574245 17.649488200427975 0 1 -1
1323 1 10.747896495775901 6.629249743710819 17.217646124726414 -1 -1 -1
107 1 1.0540963413115432 9.039512662656811 17.283648641095795 0 -1 0
313 1 0.2129580570698164 8.419911116115518 17.432769931230254 1 0 0
1864 1 1.8579464649178203 8.311444314386133 16.84637418564421 2 1 0
1828 1 0.7877001995267774 8.105976222926392 16.63753310795566 1 0 1
2467 1 2.756440435013822 7.20554220229981 17.71744966002248 0 0 0
1816 1 3.345769156158365 8.462344650400151 15.11800328116451 0 0 0
3924 1 4.338021815309384 8.063799749679433 16.165106849306476 0 0 1
3350 1 6.366358994978731 8.18128151301714 16.21032168047237 1 0 0
2793 1 6.616562531854196 7.225041954874252 15.743725566098101 0 0 0
3829 1 8.47756077195093 6.685321163314878 15.83549890926429 0 0 0
2199 1 8.540284929108823 9.24968001913303 15.648722756959076 -1 0 0
3236 1 8.05270796324266 7.792541135024891 15.46562662080598 -1 0 0
1406 1 9.917413052815006 5.96199349647774 17.13908933166863 -1 0 -1
1318 1 9.55651961517826 9.045007418917386 15.243259210229043 0 0 -1
518 1 0.02732928679192792 9.890929203261699 16.168208283195185 -1 -1 0
3455 1 7.48203991185877 7.776782759965231 17.353522097280894 0 0 0
1938 1 -0.04579289751638416 9.060514751403176 14.856092757445323 -1 1 0
1571 1 -0.725349604868253 9.376672133884098 15.4967990200427 1 0 0
2905 1 2.643837519006709 8.885170719902025 17.464677231750713 1 0 0
290 1 2.9533528822258877 9.258622432399985 15.613937797377217 0 1 0
3363 1 3.9722881344921515 7.7721941505298435 17.64697578236084 -2 1 0
1727 1 4.758378072618847 8.632003618781809 16.788160440524464 0 -1 0
2510 1 5.843957665076144 8.275895331468815 17.475737970691398 1 0 0
2029 1 4.782462462132821 9.521087981113377 15.935727581875101 1 0 0
229 1 5.772225428177134 9.875395605703517 15.67813543154278 0 1 0
111 1 8.167218086597572 8.250236922465668 16.54726859836601 0 0 -1
1290 1 8.502649389132092 9.860338370524959 16.762435277833788 2 -1 0
649 1 9.386552903659835 9.439140109320201 14.209873617186894 0 -1 -1
1011 1 7.837730391496544 8.788604800290255 17.404390466202237 1 0 -1
1121 1 9.351107795893624 8.469788971459982 16.258084001921766 -1 0 0
502 1 7.714934555642163 9.927293091489522 17.706483625584056 -1 -1 -1
1598 1 10.787795188008742 8.552082867152386 18.14539443783726 1 1 -1
3178 1 8.988797385781611 8.24652027819565 15.187967647971378 2 0 -1
3221 1 -0.49471947450566817 9.707806634753645 16.98904528986575 1 -1 0
675 1 -0.6336148933040722 10.756701327243919 17.018544585242864 0 0 0
3122 1 1.9866416243431333 9.324229842605243 16.93978751024442 -2 1 -1
3752 1 0.4485202408091882 11.19338860976845 17.088622262683785 1 0 1
2520 1 1.239327467269138 9.967761064841005 16.30788555112447 0 -1 -1
930 1 1.4802909212557602 12.804938601529575 17.119423582735045 1 -1 -1
1512 1 1.2514900661567028 11.797748142380033 17.378348926459076 2 0 -1
551 1 2.799105722881457 9.147554495781133 18.47644508758288 0 1 -1
846 1 3.0304422583222386 9.644044807897393 17.024108107948393 0 -1 0
2766 1 4.33877229846965 9.658231887969201 16.847466989396757 0 0 -1
747 1 3.616440229940131 11.332868122526438 15.808279405773481 -1 0 -1
3549 1 3.595661104847399 10.522521176032372 17.162089885073435 1 0 0
2517 1 4.56280621663224 10.606042065923937 16.038233679012386 0 0 0
2670 1 6.39125723274982 10.691773952050216 16.430622963462042 -1 0 0
1402 1 6.455855540666497 11.748869602702378 16.8516064036426 0 0 0
1768 1 7.741113455266666 9.804674688712032 15.576397680432558 -3 0 -1
3469 1 9.143972225893595 11.16263525921583 14.570094593905347 -1 1 0
3041 1 -0.37781341154856785 10.41243725945624 15.350931400310317 1 1 -1
1606 1 11.174063050295121 12.092845552887185 16.455830143215337 -2 -1 -1
199 1 1.8856208949481559 13.391838864329104 16.329262392084665 1 -1 0
1454 1 2.165507469466224 12.305651321102184 16.071814438099615 0 0 -1
2226 1 0.9046473389995646 12.100281206825878 16.146558924480928 0 0 0
1619 1 0.5266546100592098 12.580789441533577 17.97443510578927 0 -1 0
120 1 2.598046460735499 10.804223792930122 18.001282257195477 0 0 -1
887 1 3.6438824825153997 13.3161312659266 15.68748194156767 -1 0 0
2506 1 2.3393386716893287 11.942753376005614 15.047136173855248 0 0 0
1663 1 4.145975549691013 11.405471956593276 17.302371566642037 -1 -1 -1
430 1 4.109079800990829 12.498867507921233 17.301156225052736 1 1 -1
3027 1 5.418171910692028 11.229200971060356 16.387592625720295 -2 0 0
3876 1 4.71571408300378 12.684429398341113 16.0797303216776 1 -1 -1
1255 1 5.323570081508226 13.184684072417545 16.825431811413303 -1 -1 -1
1044 1 7.990001029221114 12.629324061308203 15.643181714932963 0 0 0
3091 1 6.859203997553367 11.16670115693515 15.672924970485822 0 0 1
3972 1 7.684977610677542 13.714406337027764 15.66637676182845 1 0 -1
1839 1 10.636336359608357 11.111055206818998 16.712969273344704 -1 0 0
1804 1 9.46871292047095 10.482475631622153 16.54741401046339 0 1 -1
2102 1 11.008436771187268 13.876598663324218 16.28693962184868 -1 0 0
3801 1 0.2677761168938346 13.216310507682962 15.928184527923916 -1 -1 1
587 1 -0.7684312848728447 12.452450941513646 15.124774579654817 1 0 -1
1851 1 0.09173495646519436 12.330108303670421 16.81757233492951 -1 0 0
1911 1 0.5013821041418804 14.251064032270836 17.435402711421744 -1 0 -1
1144 1 2.7294726794604967 13.686731876927674 14.617147919131812 -1 0 -1
1502 1 1.4672469018510563 14.032706431127274 17.009296037802763 0 -1 -1
1976 1 3.114339188971222 14.931791640708676 16.733653528134887 -1 0 -1
3234 1 2.3904035391061504 13.634269854412807 17.287342423998595 -1 0 0
2345 1 4.158334980162221 14.122166567878539 16.434962548194896 0 0 -1
2465 1 5.656966352282709 14.190133297163982 16.9685159076029 1 0 -1
713 1 3.248665117591803 12.019079120700612 16.801654383701695 -1 0 1
2024 1 3.6930559581748597 12.328946863985994 15.91679484749247 0 -1 -1
3485 1 3.8057264124018104 12.48793798733062 18.376564257303542 -2 0 0
2090 1 4.528646763897163 13.716342914538263 17.5463909474232 0 -1 -1
676 1 6.797151020362619 14.111141446203584 16.328700400473963 -2 0 -1
391 1 6.373367846719968 12.911411873057082 16.550627136463184 -1 0 0
826 1 7.533870252439371 14.597253058081156 15.029641653743246 0 -1 -1
3378 1 8.173082524663343 14.28563090881057 16.653516135867086 -1 -1 -1
3461 1 5.90658588212442 14.587330760705607 16.05521415017064 0 0 -1
3045 1 10.727399514815486 13.275525415975334 17.134517033144114 -1 1 0
212 1 9.929490543209702 11.697868334976402 15.128374158325057 0 -1 -2
3767 1 -0.36956207793527074 13.881728143332378 16.56647813727283 1 1 0
1468 1 -0.013883710169080632 14.721167846022448 16.178420446846303 1 1 0
3193 1 9.891213069922104 12.582371200450371 14.500123844297626 -1 1 0
1612 1 11.031721693263334 15.459384533886608 17.39832610903089 -3 -1 1
1273 1 1.0567028019926046 14.875476835653922 16.56383917915914 -2 -1 0
1249 1 0.787358658679961 15.3299364636186 17.729033004202883 -1 0 -1
2746 1 0.5322949926083991 16.744450140204023 17.835780287309852 0 -1 -1
2660 1 2.1055869935017903 14.561746483490902 16.40830330202124 -2 0 0
900 1 1.324066768335748 14.92493785510222 18.496211991776647 -1 -1 -1
406 1 3.777074136546328 15.175129920543496 15.494619376537512 2 0 -1
1094 1 3.6269067986786094 14.59103363945317 17.930429534078293 1 -1 -1
76 1 5.84104323895532 13.26909545403848 -0.7785435955130858 1 0 -1
2235 1 4.823856589527226 14.36004538661563 14.997906256773069 2 -1 0
2994 1 4.6899835309915945 14.697163792509217 17.843634670691003 1 0 -1
1529 1 6.441158323458606 14.847245453710313 17.0594147823765 1 0 -1
1551 1 6.780614189295371 13.571111602708374 17.24265119808519 0 0 0
375 1 6.077142793777407 15.138540893595534 18.463728410959106 -2 -1 0
1227 1 7.979396856982989 15.207534183452035 15.90203755688673 -1 0 1
547 1 7.8321382555144226 16.72912581261201 15.79774860894151 1 -1 -2
3865 1 8.134364568286385 15.017047015865456 17.85744626968993 1 0 0
158 1 9.215611545412978 14.403095916708548 17.01931940694478 -1 1 -2
2734 1 8.65450052814354 15.162241319370208 16.979823954015444 -3 1 1
2037 1 9.857385319600144 14.181039313495324 16.26477608479295 -1 -1 -1
3928 1 10.386341602144089 15.158750510247197 16.587412996718463 0 0 0
320 1 -0.8266715668009212 15.141842463455342 16.34937290978646 1 0 -1
3235 1 11.015236604225343 17.954533730666427 16.973845053835973 0 -1 0
3575 1 0.5624781360531583 16.115640419279345 17.008709481940173 0 0 0
3440 1 4.0357727064842965 15.50652287007871 16.431094239105285 2 -1 0
3344 1 2.5115284611365745 17.866478909189524 15.379728807512342 2 -1 0
1053 1 4.2497120082050195 15.301658356059479 18.481227617617016 -1 0 -1
2770 1 7.374616640254807 16.796893903618468 16.790603090409675 0 0 0
108 1 5.19325874838829 14.813778032414296 -1.3032457859902618 2 -1 1
1497 1 4.921599155198923 15.981853864969866 18.027819984175004 0 0 0
3946 1 6.988623089802415 15.433612833476426 17.942753226834526 2 0 1
2745 1 7.71007789227542 17.6748301193468 17.372743531469744 -1 0 -1
1838 1 8.907001977723276 14.66189792960465 15.912655190940468 0 -1 -1
2582 1 8.285494283759979 17.341925848470915 16.454867323163228 -1 0 1
3249 1 10.459221718847425 17.923170343918677 15.253830684076638 -3 -1 0
2 1 9.202720500488878 15.170306990036702 17.999854323597496 0 1 -1
843 1 9.498325139322823 15.784622585100605 16.63047783423628 -2 -1 -1
989 1 9.442025668785767 18.340700940759987 15.650588148348652 1 0 0
3530 1 -0.3400521708300608 18.161070165549603 16.204474207384486 0 0 1
2796 1 0.6765316425626615 18.429711533943944 16.65898500156368 -1 0 0
2847 1 1.5868696580517039 18.11324391304813 16.885516635348857 2 -1 0
2210 1 1.8362692926184638 15.90310073520398 16.488489322366817 -2 0 0
3918 1 0.6029548708435313 17.9049988666007 17.56742108024529 -1 0 0
2986 1 2.5626394555821292 18.67527044429469 17.08859206132668 1 0 0
3872 1 3.540225652845028 17.419289681613805 16.024542501555104 2 0 -1
3559 1 3.842645790944214 17.353925172606502 15.016735771848305 0 0 -1
2099 1 4.170966493115924 17.710183228954186 17.15407148784187 0 0 0
3451 1 3.922741274528188 19.317676427956826 15.745485965235213 -1 -1 -1
3216 1 5.268851206141804 17.71377462188495 17.144013149616462 -1 -2 1
763 1 5.6212126931199355 16.673183428107045 16.672668093942562 -2 0 -1
2687 1 6.193087555949047 17.495770874792044 17.656120980542042 0 0 0
1511 1 8.377757813041121 18.252618617513143 15.629551487633917 2 1 -1
1562 1 8.908381000070788 -1.291352857116226 17.134634687366713 -1 0 -2
2397 1 8.277445759372574 19.354916041113995 15.777656090119 1 0 0
2699 1 9.22747971006672 19.59397349933561 16.11853945189901 -3 -1 0
596 1 10.490695342887111 18.530135435459506 16.089005372847602 1 0 0
177 1 0.2577725327741982 19.237061746412365 16.18881925092061 2 -1 -1
967 1 -0.42776603912410505 -0.06030104199180486 15.981900092721348 1 0 -1
294 1 10.698449070620658 17.648614205971306 18.327357743478743 -1 -1 -1
2268 1 -0.42248347025814176 18.590661524681884 17.321695054556166 1 0 0
1086 1 1.7210971690179702 19.495386023498092 14.724955110161853 1 -1 0
2466 1 2.9996237749436236 18.87797579401574 16.072952560634853 1 -1 0
3570 1 5.939862153152704 19.703928551900304 15.895593856867725 -1 0 -1
3827 1 4.999374506326125 19.62341577031355 16.371373828131183 1 -1 0
1530 1 4.345610306697057 19.574923373192668 17.20450546536747 -1 1 -2
1880 1 2.7523446572422348 19.212200938568266 15.15021023592461 0 -1 -1
662 1 6.428167668158392 17.09872417954528 16.311371654631657 1 0 -1
1453 1 5.0993026112046715 18.87851398468986 17.48953274407591 1 -1 -1
527 1 6.06492201253116 19.15860980368023 16.861884301089482 0 0 -1
3175 1 9.232401952332498 -0.7969109281772973 15.886967851442408 -1 0 -1
2856 1 9.093795701336818 18.116190728256377 16.670932719519804 -1 0 -1
3798 1 11.02453881817268 19.454176338907054 15.200500840277227 1 -1 0
3771 1 7.7664250018853345 -0.18278991977512238 14.438748751987763 0 1 1
446 1 11.075911250953064 -1.2136556500707514 15.963683400110591 -1 0 -1
2060 1 11.385626249984655 -1.2932661483430212 17.023485306952402 -1 0 -1
987 1 -0.42223218536785523 0.29392221219362713 -1.3998473981609123 2 -1 0
2820 1 -0.4054076527054922 -0.5824802417684751 17.78527986137435 0 1 0
2160 1 -0.003732267108731424 19.729439459816938 17.19901159268001 1 0 -1
2579 1 0.6791574695340468 18.98926341054033 17.513339893368048 -1 0 -1
3067 1 2.6320378600556134 -0.8802502016881821 18.05152848353201 0 1 0
1592 1 3.719423780555532 -0.6425421810073564 17.693254232039756 0 1 0
774 1 3.0710055075803275 0.36388565154191976 17.87603882663916 -1 0 -1
3754 1 3.4140875677111344 19.77517456153459 18.125789047345187 1 0 0
1688 1 1.6358899896745043 -0.7343095512016615 -1.099926309800598 0 0 0
2491 1 5.511723286516054 -0.8667052372940246 18.600397018993995 0 2 -1
395 1 2.25850075690006 -0.9524782207480961 17.057864248731775 2 1 -2
2548 1 7.800271005169501 -0.8307848950602196 18.096656850674016 1 -1 -1
3120 1 7.359560852519927 19.67490022702256 17.306076203286842 0 0 0
1462 1 7.153268546355633 -0.49335697728916017 -1.3951031739090178 0 1 -1
2234 1 7.52337297028741 -0.28967360421479116 17.170726155779064 1 1 0
332 1 6.817370556663228 0.9135450494067618 17.301281064534194 -1 1 0
1698 1 8.805724711943887 0.9354878640328206 17.60877026761088 0 0 0
3102 1 8.432030870390706 -0.15165146258768925 -1.2689305901738175 1 0 1
3843 1 8.579544372407224 -0.3388203902762059 16.708901175846 -2 1 0
1755 1 8.50979932501166 -0.17480445724899152 17.79373470326304 0 1 0
577 1 8.102733969097322 -1.188985142080409 0.06425247203171236 -1 0 0
696 1 10.407844168209595 0.7172811348279664 16.823667247831565 0 1 -1
3537 1 11.014803507756033 -0.06356001155721658 18.37658530850804 -3 1 1
2842 1 10.894819932080546 -1.0490636890771807 17.961778760636193 -2 0 0
2339 1 9.89843714932283 0.11179868859779507 18.60197649413135 0 1 1
1214 1 11.409392467276911 -0.09968250106034171 17.014286079662845 0 0 -1
1155 1 0.854955815201234 0.5786141423101219 18.07046889652394 -1 0 -1
1461 1 0.10856296108505825 0.44449106178501485 17.096871122166853 2 1 0
1527 1 1.915576855340194 -0.16895032618255224 18.27087184609819 -1 0 0
2141 1 2.4468280225535537 3.2374328419097003 18.669651182606707 0 0 0
21 1 1.8517123076587998 0.837508926311 18.422400688609507 1 -1 -1
3616 1 5.216474542779547 -1.2918763197062912 17.27622680823022 0 0 0
1479 1 3.4322748795903477 1.337286771715458 17.907227203638925 -1 0 0
490 1 4.586931918460984 1.5835236677560283 17.87524625829662 -2 1 -1
2303 1 5.58819470911234 0.4086360945990488 15.713192970836046 -1 -1 0
104 1 5.140030396542043 2.0264948306812114 17.05981712967852 0 1 -1
1308 1 7.307072431455323 2.7743698968047426 -1.2333421587604296 0 0 1
1226 1 8.011957374943613 1.6352003606667438 17.546590798174755 1 0 -2
259 1 7.554345593523587 0.43312115764727577 18.058900305711084 -1 0 -1
996 1 9.646911830222843 1.304738107703768 18.091034414150094 0 -1 -1
717 1 10.785852111012447 1.0181037647408115 18.18630690441895 0 0 0
2862 1 9.606941654811589 0.9184954651000701 -0.9212178392752504 0 1 0
3004 1 1.913146096662313 1.5743387460937512 17.51668291854015 0 0 0
1863 1 0.39059183949696896 2.312417716963379 18.669091000814063 0 2 -1
3563 1 0.44534427350385064 3.4619368074699537 -0.986990531739963 1 1 2
580 1 1.4312651067028455 3.1407135672542994 18.54434163549594 -1 0 -1
3656 1 2.048871226948664 2.881214057284563 16.92514008540762 1 0 0
331 1 3.2495108042091836 3.1198277067307814 -0.747001782030828 1 1 0
3092 1 2.5159647496321993 4.1876685014521255 18.003888228965415 0 2 -2
793 1 2.7469262126251275 1.4949193346119154 -1.2588365573742362 0 2 0
1113 1 3.8451263515416327 2.2986211355128283 17.590119157111232 0 1 -2
1677 1 4.378556167684425 3.535417843358627 17.366082575026496 -1 0 -1
3307 1 7.311257538748746 3.301158387741772 17.55441494026688 0 0 0
2619 1 7.53511205869734 2.6460558729377945 -0.13835684739737109 1 0 1
75 1 6.25202153952149 3.8915781341638302 18.537714799223544 2 0 -2
3587 1 10.198018714592472 2.1781847444299487 17.96052452487322 0 1 0
3745 1 8.387592261335953 2.931167358621477 18.12500865289821 0 -1 0
669 1 8.530941576014452 3.6209961390685796 17.33464918201655 -1 1 -1
2296 1 10.097953507727514 4.833252991046304 17.464751544428722 -1 0 -1
2445 1 -0.21520063868535233 1.0753778793388729 18.060217357623166 0 0 0
822 1 -0.4003612150358236 2.247024647383332 17.962995194104856 1 -1 0
941 1 -0.7484697888966219 4.693439741523625 -1.3645490508973466 2 0 1
1739 1 1.1411223706823703 2.2812362074346986 17.091784299006953 0 0 -1
2760 1 1.468638035950077 3.955445744294341 17.92725997549536 2 1 -1
1824 1 1.4978157635531968 4.21679296370164 16.49690915139775 -1 0 -1
909 1 2.9429918608749994 2.251009781283658 16.99021901387666 0 0 -1
3809 1 2.8778460483688417 5.159132453877612 17.65491586751981 -1 1 0
674 1 6.659393449693618 5.021906104081452 18.199351393400462 1 1 0
2983 1 3.295811637818785 3.44543762416406 17.31081875582121 -1 0 -2
3180 1 3.9625750602701215 2.5479488337742398 16.63195967217476 1 0 0
994 1 4.720687859882187 4.354930987214055 -0.40572390111206436 0 0 1
1643 1 6.289673398597781 3.9716682549884323 17.519673307408283 -1 -1 -1
3989 1 7.974498788292371 3.7828262206069683 -0.8158169349942047 0 0 1
3205 1 8.90336078738609 3.9039726890239557 18.663042777147382 -1 0 0
3600 1 10.008476129157769 3.7299110998394465 17.938946338606172 1 1 1
885 1 9.796357416700792 4.587320124110806 -1.3729010044655132 -1 1 0
2985 1 8.154584454832833 4.783185569661874 18.581539512908975 1 0 -1
3253 1 11.122192067518565 1.8957840016571605 18.483163234921108 0 0 0
3173 1 0.5957192268894336 4.5357397739348375 17.517015178816266 -2 0 0
651 1 0.17460452327605447 6.254398754434589 -1.42773960107003 1 0 0
3926 1 11.224925614303531 3.588677538539099 18.369023794781135 -1 1 0
225 1 2.586086038674005 4.915240996771564 -1.3649383124988061 1 0 0
2064 1 1.6214286637939486 4.9412869740110565 -0.4346634964306535 -1 0 1
3573 1 3.075957264498338 5.446965152069354 16.593756523650498 1 0 0
3444 1 4.632766875311659 4.905753871359767 16.645211360736567 -1 1 -1
3765 1 3.6706880156273254 4.363164900036877 17.77281607239967 1 -1 0
2893 1 4.637847765406652 4.878179576449476 17.587789038152145 0 0 0
1836 1 5.634731668465934 4.530992109057917 -1.0395906209652694 2 0 1
2457 1 7.095430410624012 5.582334436140768 17.241176949645272 0 -1 0
1211 1 5.087545427227865 6.021433201156241 -0.6148781418480324 0 0 0
1604 1 5.368355546710723 4.151740513134169 17.982279267245836 1 0 0
1463 1 7.366578537241244 4.127293508044682 18.452290077099633 1 0 -1
3567 1 7.415418562266288 4.485275473429088 17.45481040161274 0 1 0
419 1 7.014592004843961 3.726531909722854 -0.22901222157252765 0 0 1
2880 1 7.945760927628886 5.636977077727061 -0.8214812407856065 0 0 1
2700 1 8.230633643276775 5.736365092208971 17.625609834550254 -1 0 0
2264 1 10.738275928245447 5.6113246150988205 -0.8802978979903603 -1 0 1
1856 1 9.682674560789899 6.051216337413594 18.494517823129065 -1 2 -1
541 1 10.928257999153477 5.440834174230926 17.46931403806937 -2 -1 0
457 1 10.792684070091745 6.3828231815998455 18.36584512263834 0 0 -1
198 1 0.031244690443825496 3.938606367973745 18.24990867859764 1 -1 -1
1758 1 -0.7996777099781455 7.39502420549983 17.10653456816226 1 0 -1
3014 1 0.45060174227208627 7.236513082775341 17.669952313930516 1 0 -1
1660 1 2.3780563229593246 6.371462034955906 18.180157287343214 1 -1 -1
2475 1 1.2066125918523967 7.176669251405798 16.504250771825014 2 0 -1
3162 1 1.365871114245147 5.936066504778947 -0.2093240661865452 -2 1 0
3188 1 3.3266181807901116 6.986067701391159 18.509981358646975 1 0 0
3783 1 4.2605932516635034 6.7822539898462395 18.168249657929202 1 -1 0
3803 1 3.8410089236962603 5.773009784270087 17.283739219787236 2 1 -2
1149 1 5.881339623248474 6.025905710832423 17.012358655213717 1 1 -1
1750 1 5.488538415117386 5.197751774391646 18.223754806812728 2 0 -2
2054 1 7.941669418208308 5.115288905876911 16.681717118815946 -1 0 -1
3585 1 7.498208670758938 7.314658232679127 16.345713618558477 0 1 0
3935 1 8.724035996010874 8.048865742329193 17.643721974421723 0 1 0
187 1 7.445357245715918 5.689042916207542 18.37539490670101 0 1 -1
2185 1 8.371267181975337 6.394808543348803 18.606460304595217 -1 -1 -1
2614 1 -0.5870328948173686 6.985988627294988 -1.4104612722904049 0 0 -1
3096 1 10.760130969263301 7.683007851165364 17.694649842601102 -1 1 0
3111 1 0.22291701149265153 8.43307433038604 -1.2522550145859477 0 1 1
1586 1 0.807201418904471 6.805948519799738 -0.20258682270608697 1 1 -1
3083 1 1.2358581993222173 6.682586166460384 18.50866326242774 1 1 0
1625 1 5.096866518018075 5.8458633248022895 0.7365210898193104 0 -1 0
3720 1 0.99354408448564 8.404108463273955 18.259548423378092 2 -1 0
1331 1 2.0405688107430335 7.3156390712415895 18.622161724755465 -1 0 -2
1043 1 3.721631334953668 9.080926932735377 17.650389653788785 0 1 0
1026 1 4.445357081559476 7.933927986272346 18.56888770093596 -2 1 0
890 1 3.0068755072736892 8.085647327770372 18.22651292617313 0 0 -1
2924 1 7.402161085366059 8.65885620654121 15.542159889580054 -2 0 0
2729 1 5.652762789219085 7.721536882013513 18.48362331179817 0 1 1
2971 1 7.476832907617409 6.113499160608206 16.089980535535737 -1 0 0
703 1 6.840063067056225 8.598684139688164 17.042695937642435 -1 0 -1
658 1 9.744220398269603 8.604154833117384 17.2914548620801 0 -1 0
879 1 7.810993300437513 6.935405516622792 17.77476074428911 -2 -1 -1
1756 1 8.79283351736931 11.547272700358562 18.66904158210434 0 0 -1
538 1 -0.3755974367767726 7.928544035870745 18.205198651302844 2 0 -2
3174 1 11.43168696491733 8.47870643509565 17.1697531581068 1 0 0
2021 1 10.920279909683407 9.682548889036342 18.011746626663253 0 0 -2
445 1 9.48024596148302 8.495186607003316 18.449393007549077 -1 0 -1
1034 1 1.0233825141063664 8.978259735308638 -0.9110685968266162 1 1 1
1821 1 0.638089663470482 9.568247016583872 18.204850187099453 1 0 -1
339 1 0.4506243208250511 9.871799857232075 -0.5620787710907372 0 0 0
3595 1 1.9671423822555 6.937625381895522 -0.5193006821046116 0 1 1
1294 1 2.2154552938356598 9.727807052272809 17.98440619530451 0 -1 0
2251 1 3.188508912050719 10.226552091519823 -1.2035844269868599 1 0 0
3885 1 3.6038993067101774 8.858295513911898 16.297352358675383 -2 -1 1
3315 1 5.1437870595820705 7.193513314165584 -0.7616823123120477 0 -1 1
3991 1 5.706903376347992 8.740396213373252 18.45707428315886 0 1 0
433 1 7.535099227124791 9.255543122133105 16.531795185825274 1 -1 -1
3106 1 5.149185726313536 8.156512215919182 -0.8131785880736745 0 0 1
3692 1 4.4894111791729285 10.30922813864936 17.727460747680723 -3 0 0
1095 1 6.6137887551936 9.911132597999952 17.40084863789368 -3 1 -1
3194 1 10.182672501205339 9.606157004586219 16.10138802901099 1 0 -1
1027 1 -0.7372736208081441 10.359323885554886 18.131906823802396 1 1 -2
2519 1 9.533857205766356 6.644851224562359 16.441892143673172 -2 0 0
3001 1 0.2370977682090507 10.416988172949036 17.736789072312767 -1 0 1
2481 1 1.3202611405274292 10.192614928683765 17.3963823321374 0 0 0
3831 1 0.7396507149114924 11.346115109819516 18.26421662620787 1 0 0
1716 1 3.49131629388911 10.15479173891565 16.14141804353789 0 -1 -1
1272 1 3.208741159926104 11.800024525745489 17.85153707689979 0 -1 -1
1083 1 4.796316034322002 8.97862169176999 18.019648019271152 1 0 0
3431 1 5.6866077026201 10.15305072105922 18.337754483049814 0 0 1
2882 1 5.820991992761394 10.846332380212312 15.476866822274294 -1 -1 0
135 1 8.309368446499734 10.625995816637644 18.32589596630872 0 -1 -1
2015 1 7.192484347065898 11.018299076554873 17.52666492717495 -1 0 -1
2124 1 10.64002394361531 9.876148619507706 17.08270891667152 0 0 0
1932 1 10.963519190370766 10.337378919285621 16.124228760291878 0 1 0
1005 1 6.174202090116877 10.782097655511766 17.405359647517024 -1 -1 0
616 1 9.89244268206263 11.293979301571659 17.43774861695526 1 0 -1
3048 1 -0.3651410813471144 11.559180493748018 17.848109120825036 0 -1 -2
52 1 -0.1722082349434828 11.963548988548268 -1.3508139272360418 1 -1 0
738 1 0.8309634896925071 12.748491421220145 -1.043891217929391 -1 1 0
805 1 1.458249671197143 13.516102258824041 18.0581207693547 0 -1 -1
1123 1 2.0543996532545132 12.17255010285693 18.317018235624985 -1 0 -1
3204 1 2.3119620112517847 12.109414902080074 -0.4143557694721325 -1 -1 1
2129 1 3.9917682430977015 9.868380946380844 18.384777723481925 1 0 0
3376 1 3.066688470435792 12.899864847475405 17.666697974468704 -1 0 -1
1219 1 4.702821103582093 12.482449390094715 -1.1972665367153286 1 0 1
2631 1 3.600993729765837 10.862971456419578 18.31770327402088 1 1 -1
3158 1 4.126645491785298 10.660878577628724 -0.8012647993908425 1 0 0
2410 1 5.430031744728604 10.174475618865337 16.55354155503091 0 -1 0
2121 1 5.191051475521911 11.222914343943707 17.518042997479192 -1 0 0
1573 1 5.950023792931656 11.90348707304483 17.73611529562369 0 1 0
2083 1 11.031227131330818 11.39156892581204 18.596340297057374 -1 0 0
1770 1 9.965061130562004 11.959788052899759 16.279748167534976 -2 0 0
1505 1 8.765508860981612 12.559980655778217 16.724174231604174 -1 1 -1
83 1 9.959108447144253 11.406490131958344 -1.1567186217750676 0 0 0
2417 1 10.78018184199342 10.826777915924904 17.74965612951334 -2 -1 -1
711 1 10.687287233080413 12.695655304997072 15.541209202446074 -1 1 -1
1300 1 11.385858436163431 12.413970253054162 17.916333605506715 -1 0 0
1491 1 10.108817179966263 13.241030555688598 -0.6371150882873117 -1 0 1
1106 1 -0.27000294600923813 13.944137617923559 -0.85687903676028 1 0 0
1939 1 11.036029124981827 13.58924412466025 18.433969709803087 -2 0 0
3564 1 -0.45837049275055364 13.41146533723741 17.81911327981021 1 0 1
2429 1 -0.08814748488097313 14.869391902053001 -0.29375861922591384 0 -1 1
2866 1 0.6269293082612855 13.936993582015605 18.492449708151078 -1 0 0
1901 1 4.3934970260500235 14.229620582929817 -0.7369615857098396 -1 0 0
374 1 2.302252530368674 12.277259249294548 17.313656275584272 0 -1 -2
3606 1 4.554835364771497 12.19642419763931 -0.19301749653105094 0 -1 1
2242 1 6.999365045212649 14.390157155046664 17.910282173116713 -2 0 0
611 1 5.155295444647082 12.814245746396761 17.927680558754496 -2 0 -1
3531 1 7.56102848241744 12.972710894306568 17.737452656227354 0 1 0
2200 1 5.815872269074091 12.196260033091555 18.6675802444865 0 0 1
1040 1 9.39144708307881 13.548712263886186 18.56860239386385 -1 0 -1
654 1 9.581650236414712 13.436663779001353 17.392589117591996 -1 0 -1
494 1 10.528149868458616 12.187819197037173 17.240908953732323 -1 0 0
552 1 10.27369137010613 12.935126148760622 17.981048365667434 0 -1 -1
524 1 -0.8376319373038349 14.517627069519945 18.16319479675242 0 0 -2
3297 1 -0.09303596577678097 15.892520712784092 17.970294645737162 0 -1 0
1795 1 0.5794236061027498 16.740393502513243 -0.8136448153318674 3 -1 0
1788 1 3.2807273764807485 14.116628637624904 -0.700009572408438 1 -1 1
2603 1 2.7317429517128486 14.603799211127319 18.635088313003216 0 0 0
2484 1 3.434904241277067 13.57895651646522 17.05424502825486 0 -1 -1
975 1 3.702024465564098 13.472546905831257 18.23658826547731 -1 -1 -1
1189 1 3.425080267560446 15.198332754669826 -1.0372074173121097 1 0 -1
668 1 4.939402992212518 13.563531192249792 -0.257635412151481 1 -1 0
1649 1 5.532519491335791 15.14970460580046 17.36104311616436 0 0 -1
1732 1 5.696288938542963 14.09621245726949 18.140520309770288 0 0 0
2781 1 8.635603410951404 14.407941711455885 18.470800830151404 -1 0 0
1352 1 8.179560889971969 15.879846315365105 -1.4151690184780321 2 0 0
1425 1 7.602515939643599 14.952351045555913 -1.3783083170314154 0 0 0
1301 1 9.581074245788603 14.624884291241015 -1.2934553212045106 -1 -1 0
1668 1 9.81696295456471 16.289137204135564 17.59828858878214 0 0 -2
2164 1 11.034204642566097 14.346881216245963 17.12895296178003 -1 0 0
2623 1 -0.37190565735606307 17.024731324236853 -1.3097303868542205 -1 0 1
89 1 1.3749683582527306 17.009754150579127 18.53924865372138 1 0 -1
3659 1 2.284822445595845 15.138323686845796 17.82562452922879 0 -1 0
1749 1 1.279393630955076 14.71671369172711 -0.6487666436331668 0 -1 0
3186 1 2.5244736589876076 17.000650118778914 -1.2503473730259227 1 0 0
1814 1 2.425103014299608 16.668208115873846 17.753290178948255 2 1 -1
2764 1 3.7020526972631504 16.10321496637198 18.248475043001918 0 -1 0
3056 1 4.719667168579867 16.593603441150563 -1.3187839845018496 0 0 1
1481 1 4.132948794549775 15.478025775779864 17.41260571276159 0 0 -2
3718 1 3.039454977499648 15.716722842280868 17.398550657932283 -1 -1 0
1865 1 6.798959451958895 16.58855050613556 18.076029873222126 1 0 -1
2647 1 7.848218133056124 17.096324602459205 18.26951446561256 1 0 0
1600 1 8.072534245236968 16.760306653931877 -0.6116282546701353 0 0 0
2527 1 7.775205091144974 15.915425911226043 17.38200379516072 0 -1 -1
2678 1 9.002891121925435 16.73628614201072 18.35100134633899 -1 0 0
1221 1 8.374894644057672 18.246320016087807 18.04457034738092 0 -1 -1
637 1 11.087354849895542 16.517190429526543 18.160554304248272 0 0 -2
444 1 1.5327690318813056 18.318502597750275 18.044270495318123 -1 0 -1
3113 1 10.82396877267298 19.20475094048662 16.962970694025003 -1 0 0
3022 1 10.530794766212798 17.077348437916413 17.347550332608556 1 -1 -1
926 1 0.5334721634888338 16.53705797012268 0.26177094785941035 2 -1 0
3954 1 2.6046605969804157 17.79928077864328 17.97108411349054 1 -1 0
1909 1 3.064921827923961 16.6180557097085 16.745127796568994 0 -1 -1
3577 1 3.6800982860261886 18.573299740139618 -1.0444428637070728 1 0 1
2145 1 4.266823692963466 18.730589102669462 16.762772975669478 -3 -1 0
1603 1 6.6776332445999484 17.917318882128413 18.51016848934576 -1 -2 0
1073 1 6.972342276765672 18.373155162742236 -0.672429653878088 1 -1 0
1945 1 5.276961119857504 16.992125369969898 17.972083796878884 0 1 0
2812 1 6.2394337765669015 18.181050238610005 16.791878279422313 -1 -1 -1
2628 1 7.315913985285354 18.55955379602971 16.91180403713568 -2 0 0
3598 1 9.292130514421236 18.909735497366 18.06878965202555 1 0 -1
1278 1 8.347798277210876 16.836823583767163 17.46101412862697 1 -1 0
894 1 10.129426454089847 18.26936171203139 17.504602921465626 -2 0 -1
321 1 9.279055098280889 17.126579343822925 17.09670159919412 -2 0 0
2600 1 10.337659584499933 17.465425145787805 16.394356821178746 -1 -1 0
3906 1 -0.41481408534678055 19.67053058189476 18.249222061067137 0 0 0
114 1 -0.5655688177182865 17.690412344366678 17.910824823211108 0 -1 -1
2570 1 -0.8344728649104896 19.041306870188535 16.243082334491476 2 0 0
2493 1 1.415575157683572 19.582809364060218 16.6367347451499 1 -1 -1
3742 1 3.0376263779467227 17.62717970493182 16.88708724503617 0 0 -1
2944 1 2.8368710164234483 18.93097798131989 18.387548649926586 0 -1 0
3012 1 3.3484508605801064 19.251260366696812 17.27239076859601 0 0 0
2112 1 3.3775583622871492 17.07258913330407 17.66406824838787 -1 -1 0
2642 1 5.023219157160003 18.672449066519825 18.51697365614865 -3 -1 0
1974 1 6.283163819786055 19.2901787796823 -0.8655745965744134 1 0 0
220 1 5.842107561371748 19.569662328286434 17.870964609990132 0 0 -1
2214 1 9.704594364914941 -0.8847057967987324 17.98337132606428 1 0 -1
507 1 8.646374122942893 19.119282458677787 16.897780124720477 0 -1 -1
639 1 10.272706401192531 -1.3472040203739732 17.01352421456508 -1 1 -1

Velocities

929 0.531301066477007 0.36239739259424336 -2.7479424331674367
3988 1.8478647563803499 0.3227178731707033 0.12306269009896927
1322 -0.6512768819349508 1.2160589192073579 -1.55589390168357
1720 0.30455137913272845 -0.16032451494060404 -1.6565075676046956
943 0.7213961411040034 -0.33619198689444807 -0.0774792049588749
808 1.9284255400216577 -1.0735598570874467 -0.13566902329690306
634 0.3816753458963998 -0.09876203523798882 0.8199993160593189
2492 0.2158489150527515 -0.6423680618810953 1.1220901181727678
2693 1.104274392527112 0.21600424679834362 0.701601586520928
870 1.4655287296268817 -0.19945037252943398 0.7340263773913988
2274 -1.1754086335766925 -0.03106391877942907 -1.3760185615937477
1616 -0.905462775473383 -0.2715943559941622 -0.9049664839769572
883 -0.7879283157503709 0.6062023819150091 -1.5440537178118692
3305 -1.0075922326826428 0.44218429126314757 -1.9071974341635332
261 0.4346467617482692 1.2823892287649523 1.1174210504364144
2253 0.28876028992060293 0.5566750751616435 0.6648553678469831
3499 1.3549127681559627 -0.330723439668386 0.16800074376911014
1871 1.0441351648717825 0.5014807167679991 1.5329140766704452
3967 -1.5853304286848884 0.9774316797180419 -1.2403229563949367
1855 0.48017770603241455 -0.45056973798469196 -0.18094932208781622
1172 0.23023391141505867 -1.9966352655411463 0.2611924978844158
3930 -2.005628777571069 0.1456167312230628 -1.1137409344825342
1097 -1.1378716554517307 0.8386850295054071 2.1158362978900804
3714 -0.22522191361179045 -0.058059637803724445 0.4426360298588266
3842 -0.5638695051742825 -1.7085691684760167 0.594946732571315
602 -1.2890008933785557 -0.8892429948805269 0.9410084663604199
1156 -0.7216759865779694 0.7916788641541513 0.5668597359165527
817 1.61210673276418 0.7332931424827012 -1.9832589447150932
1857 -0.547337340286209 -0.41036896855462757 -0.47296970320821147
1942 -0.5462941000674866 -1.3440838496288032 -1.4921270077060158
2362 0.6315427770287587 0.9838538701254356 1.7143851948805018
3789 0.9068230690446771 -0.384855513878208 1.5979140036428554
978 -1.474013895862623 0.962869650408568 -0.07908718652317327
271 -1.3679303600227195 0.9449614220762926 -0.22905273084903927
61 0.21823917637507767 0.36884013757588574 1.2596367221811346
3868 -1.0472536095424652 -0.0963239737473688 1.517547477526876
2889 -1.3124882425420892 0.7672363555633959 -0.42352041819225816
15 -0.9698281804285136 -1.0529038120023249 -1.2822239004401534
2762 1.9887115786462888 0.40861336763485273 1.5564495624340633
2105 1.5938642629977868 2.9680633629229765 -0.7018101462171257
2039 2.4499631041470864 0.6105855075815652 1.0277912149995134
2610 -0.9982540394371514 -3.0699859056381458 -0.27598192695266033
3486 0.2066254716199302 0.49122871102311455 -0.18120414233757653
2158 1.2253927634543922 0.16183358169696827 0.5327260246508669
73 -0.33681049378626526 -0.3568945540694429 1.1766003520358213
2384 -2.1121312945241395 0.23641471550238097 -0.2011061205179871
3341 0.704215366149834 0.02203733123378611 -0.688405190670222
2408 0.28418979104767317 0.2651272863797635 -1.142117207400422
2860 0.007781734444267613 -0.3642768718150737 0.6845127586174076
1478 -1.31414452504286 0.07611024141666829 -0.12444718706536081
1048 -0.9374099982686747 -1.6107305278736122 -2.3966513258198017
2531 0.8934600592634325 -0.14055370436049522 0.3004956230935257
2804 -2.268826533132975 0.7610395082519955 -1.514915062286232
1791 0.9632701773512293 2.2451277902165816 0.3225151610578808
3169 1.2432956262828563 -0.1738482291887195 -0.39643501643325957
1395 1.0247311826901362 0.7671262608532194 -1.1944528225735478
1253 0.020481427138778176 0.23594007218693294 -0.4395684923291841
570 0.9673361911952245 -1.1320530397512414 0.2676430473646661
2006 -1.1446155100979931 0.7804824753967204 -0.11333634291259219
200 0.2716744541469704 0.9024031931429809 -0.2972387876600315
1212 -0.4094655074669102 -1.6653016462343175 0.7205799082351962
3049 -1.5513435510742484 1.274328257650721 2.2875674057401074
3472 0.20463259219117913 0.4693407343768395 0.2066331516520712
2262 -0.7926739462218262 -0.3587133893635553 1.0142047816852997
1237 0.6419234161513674 0.8332895680791206 1.3053023753966408
3713 1.200519930163324 -2.3772605527869297 -0.5199066543985613
264 1.9564911684100799 2.4616482914579665 2.466879639870711
566 -0.9967367201568113 0.5275883004666294 0.7571907839326272
2786 -0.8767521946873069 -0.7200742188247569 -0.058458805784571986
3230 -3.479879969762991 -0.14565264193805416 -0.20638407332258418
692 0.31366884722381494 -0.6989862133460152 0.816189535099648
1796 -0.5649135071831081 -0.35329451306748294 1.2089620170887974
3319 -1.0991073343277915 0.6289316555961673 1.6333777463008383
1686 1.7893640090593683 1.5283055197096678 -0.2917243915560378
109 -1.287887152693514 -1.8126292299593847 -0.5115691981344151
1184 -1.5436695879940767 -0.20907528481044665 -0.2405111694915482
2113 -0.6934581195850231 0.04218573922472642 -0.8020666970803838
2450 0.19431134270105574 -1.1374382626971653 1.3885862307905208
3084 2.091825280038493 -0.6513332300860268 -0.768585553290299
1995 1.4681956187949274 -0.6159554166647353 0.1755670185413183
3493 -0.061817939708918225 -1.1823077213623443 -0.41413872794085366
2564 1.3395191696884172 -1.1223909876661722 -0.39699058957258543
3996 -0.6802822582844479 -0.07199474790611109 1.0360825637095696
3733 0.9129443634357789 0.677390188833649 -1.4869677732597395
1854 0.22743927102852415 -0.43542326371867096 -0.43843084404797805
3213 1.7053293094587485 -0.009178441990372432 -1.4287566284566806
2898 0.858205756863149 1.156719479498162 0.39602898091353894
2012 -0.5025545995219811 -1.0294979746787658 -1.3205205928397317
2966 1.138737590855155 1.4160208134211252 -1.148834129967604
3457 0.36829346224894327 1.9036593040116077 1.1853157456463437
2360 -0.21684706015550176 -0.8265871861353916 0.27470116206675493
1247 -0.24415190456876917 -0.43129955055465585 -0.785373712450833
3278 0.33044602606054535 -0.8516239865017744 -1.298861707200483
3369 0.8802339191645021 0.5719196067869944 1.114925271394256
1870 -0.7107338288011573 0.6288990353937611 0.03135569388807899
190 0.7221488120183983 0.8000907646533528 0.8795395125586875
1702 -0.9479183388646155 -0.8581312921454698 -0.1945944121286503
3602 0.9099727837327861 -0.46010699755661 -0.2672429460436065
1447 -0.5920112721513268 0.42276250333488996 -0.02012823554764647
2726 2.1693784429278518 -0.0005315479636811915 -0.7687354581872203
432 0.7414385654934087 -0.43247805261894684 -0.21108525037454887
3155 -0.0801469496586423 1.3410846294130638 -1.204060795601333
841 0.6174911102565095 0.9108898850141586 0.5513022366625753
3029 -0.583934265784936 -0.47352932145570453 1.027901544119647
3623 2.2507665522668203 0.2877863557949139 -0.5820187253001254
2096 -0.0541109912568128 0.3260952985859866 1.331534871642567
1460 0.12256713210885992 1.1112630579864886 0.08109000315262485
1329 0.16744091824949675 -0.579419015116024 1.1794577934995933
2213 -0.8279406122139837 -1.373067671368132 0.07201183934560114
627 -0.3406556608012772 0.7645746948938981 -0.14749508434574876
2521 -2.149594206626761 -0.6455551914829811 0.533483496056571
770 -0.8766468340149507 -0.263963772749823 -1.7168271723265456
1572 -1.1479987458118355 0.6770927189484374 0.9987019977651194
3246 -1.2521746625213528 -0.2757203662833515 -2.1871195348630605
691 0.4576651208017644 0.05421094561182305 -3.0032689462026174
2605 -0.3890748348741425 0.9237040843589077 0.2044470687873696
1574 -0.923084392251214 -0.05941668344370476 -1.759486996241259
2906 -0.8945565423564423 -0.2918796305292807 0.33579049172053854
324 -0.04120997153437235 -1.4030442736873303 1.1902460387903544
3359 -0.24944896548902237 0.31347032122150104 -0.19064361031880764
295 1.0698671620413314 -1.9257571984830608 -0.7060079092077792
3853 -0.5560375502242138 1.328842237683875 0.844747243269979
479 0.9850922970180089 0.8192043043812689 0.508746653018817
3206 0.2994508967420865 -1.3403594228152964 -0.10263229105469027
2176 -0.6010236836533007 1.3585583395406322 -0.5040723457391367
1167 -1.6419291646887708 -0.12402206845633144 -1.4111019909717435
1554 -1.0059044476007997 0.4256857249790224 -0.1693459409079568
2967 0.08771716585260866 0.419145801942012 0.2967446411052199
1776 -0.42654752597231316 -0.33704379141822416 -0.4795639690966397
1628 0.14817373550101015 1.620201938112438 -0.4793923740355065
1999 0.3838180840745116 0.6807318673222829 0.5626050135059028
3705 0.492175205800056 1.1433059881237313 -2.1054243469535403
2156 -0.8901536417638487 -0.32313956629532786 -0.4487255637381526
2748 0.06595491819516809 1.2011092954275133 -0.25894933695855515
151 2.565421863507795 0.371096162801029 -0.02633046081157855
906 -0.9054461775508589 -0.7579752991312471 -2.1871087356416044
603 0.8777737351737767 0.7130491594039159 0.6273652939378943
2951 -1.377666251557062 -1.2179906498091542 1.5178575981058207
842 -0.34653064419715485 -2.0194852863812445 -3.0760032370274986
3415 0.5178961602804126 1.630032085044477 0.9084945607239207
2162 -0.22320650769824155 1.546786973423512 0.03242282011418679
2672 -0.035434970274749227 -0.31054527469218307 1.2802280860722475
598 -0.371735706112474 -0.37991546871851883 -2.518896002145714
3781 0.7378138361505389 -0.17882745899124416 -0.4038788058476899
3962 -0.3608949139967487 -1.1703405845621953 0.6322361837679316
1899 -1.3847930181194867 -0.8483081783238637 0.42615021847659523
3171 0.5682049731692973 0.4637563482470427 0.16038992460950158
2215 -2.0349838504136515 -0.8490040865498395 0.04588584423411243
3907 0.16858154356271143 0.20552758801570112 0.2378517760019098
1729 0.09354570010632794 0.05637850640597454 -1.1536210407029057
2613 0.13986208100547953 1.8053430422084875 0.9189077150346474
1263 1.4383564887281033 1.2549453919877527 -1.6934788946859625
2735 0.3986663311405481 -1.353627971074044 -0.5886345267762417
2706 0.46782968637896405 -2.663155899857843 1.4124996837865067
1931 1.6350999375253277 0.7791873567442481 -2.0335215554974675
3334 -1.3878099081168835 -0.06877083716103752 1.0689198100636315
607 -0.3857591264105106 -0.22853515765299173 -0.36742439425092405
3520 1.4076471392764351 2.160849138957377 0.2577549387097821
1875 -0.09095698598306329 0.7005482777146871 1.304915153370576
3997 -0.3285749968512439 0.5130068274213909 1.2267588882159965
2963 1.0347873947942228 -0.7432389607586771 -0.052907789758761696
58 0.09474955252841759 -0.01889922555453971 -1.1050776163561304
1891 1.294957506191372 -0.06679056822467144 -0.47904462326654046
3434 -0.08999086772849302 -1.4880306990550503 -2.4951557863082736
450 1.934057242277624 -1.6707153008701565 1.3591885622763604
3101 0.7482285926140075 -1.2785295056559673 1.3513800495182757
3420 1.129063579378618 -0.5509074746098876 0.5147776201018869
1782 1.5737834656301635 0.6813163055028127 0.17261326561337478
2167 0.08603488368186948 0.04134481728253094 0.057633594776144034
2205 -0.20655837261065363 -0.8414463300307737 1.1271050966265417
1082 1.2166120341210573 0.6526192602959346 0.10391290736995769
485 0.5939504815091395 0.5913609173834408 0.9659631135872627
878 -1.0350488348803604 -1.350718119482247 0.9782484811163044
162 0.6067186531375575 -0.9566530106934951 -0.1861197548143555
1443 -0.9450437648639028 0.3567757844230019 -0.5200532364577515
352 -0.6753602758883109 -0.20411152139766692 -0.3098815508358617
1017 1.9937750869867865 -0.7895856426331382 0.7003509821581702
3435 1.3920179059819533 -0.142100693806445 0.20314136136162192
1967 -1.9536839297524415 0.56984440535062 -0.2422342683261723
1358 -0.7278831945930018 0.9922736143573228 0.16000212789833654
2857 -0.34465531652314596 2.1439128953951454 0.0725035078358737
3800 -0.6646345156577214 -0.6058480660055909 0.8191266778376861
26 1.0825419645282732 -0.22711400985589128 -0.24186150201309956
2802 -1.1408788695664496 0.0860860862703592 0.7623033092220354
2827 -0.1372418529019861 0.2598913258515151 -0.7073977927014395
3144 0.9594709786747663 0.7895483445951315 -1.2253294875037692
1413 -0.6090117573004148 0.10817906983299835 -0.5126699318796442
2560 -1.9654216745919704 -0.5784225089696757 -0.06997461564035275
1558 -0.7478528320497725 -0.38352293582783864 1.9213023181116733
731 0.39803089747170445 -0.5332756150522782 1.4932686538206335
487 -0.6221696575507402 0.8925419876433174 -0.5826746031696644
1307 0.8187907053335449 -0.8518394061653661 0.16110462754226615
903 -0.922456957442907 -0.697950835631571 -0.27177997041415786
3203 0.00547066774429377 0.8471255997138137 1.1450964541101636
3605 0.2417974182498125 -0.9511456471654286 -0.6610075720015256
2936 0.32096836361667946 -0.638556380277285 -0.03174387688846931
1834 -1.0898891292754922 0.10748981737379505 -1.5029375396834133
3973 0.5105324791493893 -1.0031801009395651 0.9432853608793
1889 0.2135480369934208 1.5339537961220417 0.7543797659107023
3429 0.8143866018918451 -0.028631399031631012 1.4001718872112991
971 0.8390319479234805 -0.6016300994959043 1.7343880829021574
2830 -0.6172227332133049 -0.40132185735879533 0.5280008989375221
466 -0.5353118490632522 0.2918622153783725 -0.955470175589341
1256 -1.0510627864126607 -1.493901312731953 -1.5767244493362702
532 0.07149077989956466 0.9709308396798685 -0.6513498768917835
2664 1.3615343198129348 -0.0074511475420836705 -0.3979850603160425
1979 -1.0946314699478061 -0.10700633214866845 -0.9460987835876289
1303 -1.8857746229499248 -0.41111433175443834 0.7113967933539251
2007 -0.4390227283404249 0.4992602262154485 1.2766760864105524
316 0.08335832908116246 0.9484351914699695 0.24987175937277306
3857 -1.201009618998846 -0.7726186026771942 -0.08685022312215747
2667 0.7863412213856008 -0.10077880856411496 0.6149993879589493
3674 -0.047335406062067764 -0.6095453188748138 -0.13028694964960294
2568 2.2614040112372096 0.8509035234701837 0.5177517483234942
3325 0.3935217147207016 0.37882707749571165 0.14852070051671573
1041 0.4895396804943478 -1.0007706288661742 0.8006416429890774
590 1.6497570563695818 -0.05772880282667206 -0.2512868594842229
3574 -0.27809338622535934 1.7323134949755512 0.39647957514682947
1274 0.27891965973967 -0.5306529400375279 2.0462927831011886
480 -0.3573900138059534 0.7810497207138286 0.6814268680812866
1085 0.3652220086501177 0.1067622260801329 0.2644486943093558
3289 -0.03184074495529693 0.7109688757052726 -0.20165260344061736
262 0.7313743017457383 -0.33448269668347325 -0.1588047224790931
3127 0.650310380838044 0.823117462876838 -0.5546599206867662
278 0.3576617553543417 -0.6293934161432496 -0.05827984114554035
2398 -0.09492324289350752 0.8081163154589988 0.28678985073981084
2949 -0.1447063702984494 0.1357586884866566 0.14060946440669164
2443 1.132323688209798 -0.9593216371669688 0.30483062842447484
1010 0.23251712771934155 0.9337367819102392 -1.5522542172709388
2978 0.4064823828626727 -0.30323266116196135 0.6374314712237482
204 -0.12606137692443758 -0.2507952271621356 0.19033696957314888
3788 -2.395811369483612 1.0461768686999207 -0.6760415405618931
3275 0.8175286595710134 -0.649443989501516 0.2647012955391284
2989 -0.8258977155819519 -1.5259619077435997 -0.4085411953151591
2456 -0.961686774853817 -1.3957839042092517 -0.10123819884858618
1873 1.1697243147538596 -0.15462156577664452 -2.24171211636292
437 -0.187701326648738 1.5838679152311366 -0.6267764844996253
3881 0.7560974953280752 0.3755664053976992 0.7245214723936176
1410 -0.45869399151069146 1.1741307368626552 -1.2533531976724162
2300 -1.0318560447615528 0.14892964937129002 -0.13336202352304982
1057 -1.3440386556054782 0.27581331794867675 -0.7463454023281114
1432 -0.11337093086032429 0.05019948713680168 2.48000059905515
33 2.102414341704107 0.8186942160587863 -0.32070604986167106
2522 0.14565295526873687 0.9201816372207029 0.30767302767978194
2222 0.9186417876507553 -0.8392497952321689 -0.34703270582366325
3859 0.5373038097290687 0.6465030979417532 0.4489137568833592
2794 -1.5850169556357312 0.18192946155319462 -0.28212343512637456
1684 1.6931530679333338 -1.3574544589160749 -0.355652701561186
3617 -0.11797266032178175 -0.33781085509179676 0.23526330032564427
413 0.24812983885720663 -1.2336994972289492 -0.6385120387844564
2902 0.9536559170968024 -0.9180806230558304 0.10119888439963136
2662 -0.1519316890641336 0.06292714583129486 0.6247394182322547
3619 0.3298780152891414 -0.12434580405292915 -1.0409649115225879
1793 -0.02515854965597702 -0.2730474359739148 0.31923934942508725
3474 0.9784660813751929 0.5637938948277676 -0.5437902480640165
3018 -0.8448722314248215 -0.6122374111487131 -0.7393995624095542
936 -0.2586543237863306 1.0112076861651222 -0.48147743582957975
1956 -1.0545278935709856 -0.3357190795516857 -0.663279444258016
3940 -0.7323788994069595 -1.9859718373991542 -0.05096927039885103
2186 0.4676441596967098 -2.117845387052225 -1.0641942656904906
350 -0.22257346594297955 -0.5263792631405472 -1.4402747857053075
1374 1.432236830437347 -0.606634164234403 -0.7920282631166775
1687 0.5126796513071037 2.673113784687542 -0.44625895111521935
3351 0.36510047374684185 -0.8726836072285485 1.7363715768072183
535 -0.6070908220663531 -0.1624138258670288 0.38796645494857984
2137 2.751392864320596 -0.7523873530431134 0.6972632220607127
296 -0.8139136149804618 -0.86080539099053 -0.3855239388912458
1075 -0.17530523653906588 -0.11502361722205849 -1.4882715293405178
3279 0.5540735339391222 -0.33486231690830626 -0.5069219549677856
2107 -0.7848815172619975 -2.46407082627501 -0.036442832494473644
788 -0.8539170912546957 -0.9186992964339081 0.09245559671379261
2433 -0.09190159734209616 0.292306335915462 0.3768661870337128
1185 2.5581677459753047 1.1827817576349862 -0.7707433884041146
2076 0.33526396739587944 0.6366308595729872 1.534778851488938
2537 -1.0964217081134566 2.091933262045302 -1.1857879620907181
3644 1.1405239248561532 -0.3673034713656592 0.42026386288013323
701 -1.3749012657085289 -0.23948394806598963 0.17017283872250877
758 0.5616122260235522 -1.4519357476239882 -0.8180694663927756
2033 1.631933345891771 0.10521734985786212 -0.8242992844901846
3021 -0.2452668423670727 1.5300644464625885 0.281178437087599
1434 0.816839928299316 -1.3419323434262738 -1.2924974540927308
2261 0.8267365180106052 -0.5319114874345406 1.2462660147796967
3627 -0.03547412387891179 0.6876703578283966 -1.9699400777753833
834 -0.17932118905490702 -0.5580660509455665 2.041726528091522
3002 0.3007424823729128 0.3840290798793638 1.588856084781121
2872 -0.10969439010372443 -0.16402461728862117 0.785258903273684
112 1.6398249074909748 0.08453494207538946 -0.678179844720939
431 -0.6742217672209099 -1.589517099074939 1.0817423452316492
3943 -0.4665046237211771 0.7929390026313642 -0.8332507329930472
2118 -1.880063023109458 0.4657487628260756 0.2728800130206503
1819 2.0367372607140175 0.3807978732586263 1.9155376104629565
745 0.7083659320136713 -1.3769062135712218 -1.744813927697183
2736 -1.4203570903177718 1.4336452221485003 -0.20485160736642166
2627 0.04260583880206613 0.7001162361522744 -0.4825456578393493
3580 -1.3110766359775594 -0.9638749017815867 0.09792410402630677
256 1.7277227839667717 0.08992626867411539 0.2679840908485068
2571 -1.5357108616906123 0.3095932860255253 -1.2944582175873196
827 1.0211842172331227 0.2001812347902546 -0.5636872475505568
1949 1.3833581833127166 -0.9992473133326493 1.6607852475082214
582 0.37808889121515854 0.272819199054185 0.14958509756020763
3667 0.7103694990339516 0.6936956864672734 -0.9002840481826094
2865 -0.5936817797322679 0.2216948397056489 -0.31199400525306287
2772 -0.5818140113698781 1.8567865304238016 -0.3247523174641052
3142 1.7237585156814457 -2.610924336049401 -1.0794821963120276
122 0.5590271929735304 -0.3084877942687538 -1.6430586846208908
1569 -0.3847170438730086 -1.1548849617345154 -1.7321333741228246
276 1.0945348486466815 -0.7611051572022901 -0.5697027856064447
1138 0.27680779566391955 0.3621666651493723 -0.3825593600141266
3761 2.5074430941045702 -0.8508199594406229 -1.0349375554522253
429 0.1248803228264506 0.33241112351705854 -1.0905925319478469
3523 0.8493648949575221 1.4415669997336351 -1.3375400997163878
2091 -0.24189829308936386 -0.1874803534129635 0.6284730585642139
1802 0.8747270697444266 -0.8881178869430436 0.4676949837302372
441 -1.293983506251893 -0.5852122079519715 0.8478649183583682
3590 -0.33793944557806593 -1.9271012780789256 -0.7326345813172882
2495 -0.2220283787009372 -1.1975205852053286 0.6672510262844155
1722 0.10382853375013772 0.1260392284332654 -0.40483538753181436
1703 -0.00126921183903381 0.6385439297477074 -1.0981239081977512
682 0.523934404909188 2.272864940437735 -2.2100220613380186
3202 -1.016234209672357 0.038733738422704216 0.8805478865349131
3689 -1.9162216887042907 0.9183748718011329 0.4012627480109026
1458 1.7448560931075956 -1.6889032022153856 -1.7970691915265828
3038 -1.6812139220912825 -0.016431160343665138 -1.0868629856056842
1848 -1.9131714307001992 -0.4536628058073702 0.5248016617353349
2712 0.7748674181365567 -1.1735128596394127 -0.3045153324907439
1107 -0.9417368210604574 0.5023196452311366 1.198618863605116
3834 0.6812975539852553 -1.0401640798520078 0.14148445161474293
3698 0.4752380561655396 0.5053128951978985 -0.07999114719237782
2291 -0.15137791897535105 1.193097721930202 -2.331276060886852
778 -0.6288268813935111 -1.437141265459343 -0.12356293992672142
1990 -1.009707480069152e-05 -0.6634656084820941 0.03501576336118526
1382 2.209409478462412 0.9350313512649377 -0.24531039541405714
2573 -0.2731974612976906 0.13772756754692503 0.26118954080443296
1924 -0.7522600697317751 -0.028288109199598236 -1.7447909651048548
1645 0.4839546361054072 -0.7369934121529184 -0.5269328613968419
3676 0.32643624127571824 0.5367392908511295 0.5553861307421428
2326 -0.6287576813981096 -0.9054913281671874 0.7934944180574445
1588 1.0765030734986836 -1.7000973929901444 -2.099631737571391
1467 -0.24515998417970827 -1.4323406750562833 -1.3624372119693027
3717 0.3634383803548775 -0.5929034743977152 -0.33094028870676817
3226 -0.007732032395666695 0.8447753573657554 -1.6009354173153545
917 2.029866429950334 1.4948381802889779 -1.3158374362519332
3364 -0.674967381106842 1.2117279063147308 1.7122158019878002
330 0.479573145301173 0.1405685260775772 1.8033206695109616
1088 0.467135934703837 -0.7155266992716935 0.25088572588792074
2435 0.6231954686077114 0.2966985999757226 -0.8724110080063403
3811 0.3015441163699335 2.4768999068672106 0.47166629863309967
3970 -1.5287354719046318 -0.9139793596823114 -0.7790348926982906
694 0.09193115032444237 0.761732210003972 -0.36759974373063325
1254 1.3084609848262612 0.37781209816085015 -1.097032326145441
1906 -0.9130874624221036 0.279877739989912 -0.6928455578895116
2409 -1.3296935545301738 1.0031207746426685 0.17610266849942666
3055 -0.4025355291935256 -0.548218085230365 0.5983376345091209
2823 0.31753081461411925 -0.9957988707836452 -0.2743531222005058
2840 0.1683157290063089 -1.1136098434837722 0.014865810295148467
2110 0.8972709048245451 -0.42738436777626376 -0.23059036904737854
2249 -0.37515373483373526 -0.8631927112145286 1.4156872078493332
1126 1.6932416536933932 0.4148808322983371 1.342064710372142
2336 -0.4787426056961247 -0.5403546371567253 0.38824380409345627
1723 1.1932407183996978 -0.0024403809336942775 -1.0629500180322784
2518 -0.6901175805783553 -0.7251974364703333 0.5716029589489244
663 -0.9222117124834286 -0.39833401656842526 -0.5343352784957707
1601 0.11213352560750386 0.5751646821526615 -0.5400946725319163
3352 0.13373469497762436 -1.3105937443717552 -0.6768372947149363
2957 0.9294351512133134 1.0517976367199995 0.05586189208743404
1971 -0.7187622578822722 -0.20153804663585248 -2.3120075625673135
3370 0.6016319328546335 0.9645280908784707 0.162620254909031
2815 -0.8690275539836062 -0.43753493191671844 1.823001875036932
1291 -0.3270418254011225 -1.6599235524290472 -1.757564833463523
2041 -0.7185034589892001 0.18019977956790084 -1.480825345481042
2851 -0.044822070696521873 1.9202264553107138 -1.8162756358642225
2372 0.4739255198095233 -0.12183226376331614 1.2798290719891887
288 0.8959031525136606 -0.4077322359302522 -0.5731950138915887
1575 1.781555665704737 2.000836245109501 -1.0762165962346988
1570 -0.4153736167946445 0.9177931547637607 0.8522451855387375
1157 -1.213975039959924 -1.2085303688682185 -1.1895371721086276
2395 -0.977664870310738 0.6847810555871776 0.14515063144428308
2850 -2.1114479204638377 0.018546952302649446 -0.5904206831724097
1844 0.2455467862570431 -1.1313574792610428 0.6467761999008694
1359 0.33784163592730754 -0.6660667646545483 1.8114909078710397
221 0.3883489270981931 0.05250629135958855 -1.5475887638299108
2194 -1.3875126767992814 0.05597913034562038 1.1948943038804583
1986 -2.0863957720766746 0.45259499173065854 0.33654298799643506
2170 0.9348874886850393 1.7710618353118928 1.3280124049049549
3076 -1.335647364624331 0.7383088538638224 0.4627540710182585
3661 0.16327847834109208 -1.8327422537035811 -0.31854077316939405
1972 -0.3608553169402728 0.2724441283237534 2.39325822150118
677 0.1005980897695323 -1.5090727826108805 -1.176657709222082
1327 0.9048266191914114 0.9024444544531446 -0.442600628539461
358 -0.06316920107027767 0.7687187146011932 0.740778009333641
2011 -0.6621068668688612 -1.1999870326717803 -0.8083086472160079
3209 1.2620468345255225 -0.3350283823756563 -0.9047925012561632
2697 -0.34359155497723165 -0.26040901074585193 -0.6344451292859488
2138 0.16420053059372333 -0.1083570608138191 1.561715427592705
1371 -0.6502205818597161 -0.05372761902331147 -0.4766051445496432
1798 -1.1122468275860522 -0.9486135018346201 0.8086849245641303
1024 -0.7944712305762713 -1.3001216030295237 -0.9136250399303352
1620 -1.0349553611127547 1.004529109056662 0.4199564009616007
1280 0.6010457756948667 -0.604705302097348 1.4683494322019217
3539 -0.4435615818926494 0.019701698911927315 -0.8281805803788409
447 -0.43316014039269873 0.11341747547527031 0.1973525494631929
2151 -0.3204305177662284 0.702982548100784 0.8831949211826537
2839 0.5982859429318981 -0.8210601952972244 -0.2022960341041212
2256 0.7715573712309659 -0.22283463171786488 1.094011762599542
3086 -0.2800260359768088 1.0488699073775796 0.9785396388154821
2440 0.20546070905626138 -0.9799667744462851 0.041218018071945965
1137 1.8455455467416906 -0.07126946154859104 0.3613988372184386
1623 0.46479303786897086 0.23771004972471727 -0.5907663809664523
1381 0.32786081612680473 -1.7554659512045947 0.12985122959431983
3165 -1.4786153954296881 -0.8438496641989802 1.1139490577517905
2581 0.4243634964381007 0.6670328166496042 -1.5331435999107952
2243 -0.2712293206598294 -0.3036483445413504 0.35933035213794806
3712 -0.18951114588833867 0.48801836445286867 -1.7578252983487177
1639 -0.8740939682910616 0.9146257116212639 -0.06972613852477648
3774 0.7871642143548013 -0.38281047879667096 -1.595294509743035
1270 -1.5936502232839522 0.27764916269461953 0.8125528421535853
2911 0.135526900847806 -0.31993055075332844 0.21358758097085087
159 -0.27593660641619117 0.6248521917537055 -0.8573105931958555
2632 1.067300863377534 1.07378012794533 -1.5981511993170707
1032 -0.06740720282660981 -0.9931102096767069 0.902547276464971
2351 2.3484946701532228 0.3577866550378566 2.1918602395747357
698 -1.1000310737045458 1.2993296268030357 1.29869729238846
2097 -0.25307080355044304 0.0579994846443639 -0.387526257762707
1018 0.4141008159831137 0.6784141077603547 1.4237459113030513
3421 1.0046179312972898 0.34014667150124483 -0.9843930358178758
3308 -0.545727258540544 0.05545595049010249 0.9234569683883894
1757 0.33273148158498145 -0.8538910702430796 -0.056192872643330935
1070 0.05391405854526276 0.6258151453247064 0.10774055384644933
3607 0.9861326569958123 0.17016735089072837 2.059057305800769
2392 -0.02166624502421349 0.5884969215853463 1.0120894504651252
540 -0.4183902377333246 -0.34349934968855067 -0.7719906674845903
2677 -1.213595366646285 -0.6311949320875333 -1.3680445191106267
2302 -0.9679721351568321 -0.9460015254452853 0.4216693053810004
1981 0.46552934720857614 -0.5431412740366526 1.1249177971888982
3423 0.4950833400473461 -0.5169163613292987 -0.49726614134408303
1691 -0.4040811575716538 1.0254343497130598 -1.0639132331050358
1624 -0.33423649285919105 -1.5885501158336541 0.9217619064976208
404 -2.142819463790828 1.0864157061599236 2.307828805038316
2900 -0.6923504006801684 -0.6600352458443912 -0.40080833775496727
3914 -1.0034741963296692 -0.3373699438491784 -0.27385774028671817
2126 -1.1039249165387752 0.07970854387422284 -0.8635648320922943
62 0.9208759107735923 1.88104439710255 0.7970933203223444
2831 -1.020564015607979 0.20474076800108648 -1.3215880203584238
153 -3.1087966916293412 0.1422578222608493 -0.20212672264396933
2250 0.8926963469171635 -0.33336940684996585 0.5114246272249392
852 0.2418301644445443 -0.07722992805354909 -0.07512318882898394
1850 1.2346560183229718 1.2915419553058247 0.9636642962931701
2990 -0.38525121418021413 0.3870160996855439 -1.419931967622901
3673 -0.6275723191624929 1.2526161237405187 0.623998638877815
3880 1.2714801027928637 -2.140234517466853 0.23448426637267364
2826 0.10411280742610649 0.03893136088883588 -0.20435090111530965
3870 0.5119371037986937 -1.860016712286982 -1.5563921787502046
3050 0.7952551662772857 -1.8403226215655502 1.6518461138128095
2357 -0.5145670534552753 -1.3875219807007364 -1.415948809224633
992 1.0548837165500196 -0.2442369676704541 -1.2269802290451555
952 1.260411456455482 -0.37035559046660715 -2.065047868163273
364 0.4297345390821339 1.3348874631899295 -1.2254233951343274
1884 -1.3704722022171263 -0.08083201212022836 0.21756456724500794
2669 -1.4486398470915227 -0.16253632398680798 0.5955025419474712
3229 0.9869692087775163 -1.1842926904711217 1.0391602694402626
2477 -0.4116692401013738 -0.7852367488805398 -1.0534530223175806
2418 -1.9642090907969232 0.04243300692524521 -0.7914540901995758
1738 -0.037594245033528276 -0.8547310610315033 0.45975768036086206
1922 0.10502202101061148 0.3423220343143068 0.0631096517147489
3414 -0.9622915669885477 -2.028719249822581 1.1425268160277682
2095 1.1489685646736205 1.5133230990314799 -0.22372105943940365
208 -1.0535633922529881 0.38059643501779483 -0.18534943677075025
2569 1.1170888423105583 0.685391540674556 0.7484427263732587
3708 0.12255781756068865 -1.9840280971995883 0.8623026272544196
3052 -0.8988785194277168 -0.7085818504471867 -0.7127271410075268
164 0.8876841341112706 -0.9285466255128648 -1.658172449408227
2742 -0.44969408292317625 -0.41763642777874166 0.7512979239774914
27 1.3191590894720575 -0.9615812069397301 -1.095457226532423
398 0.5631444689939396 1.3086485867912903 -1.4159829389578935
3321 0.8475358920488202 -0.006645127402806313 -0.9369260225498909
2314 -1.5885983822492042 1.966667007331675 0.8163215610897399
2358 1.0596396062782332 -0.1126267153433645 1.0613929598135852
1581 1.3262649252667176 -0.1455684922842055 -1.437680753589684
1970 -0.721204815407029 -2.446303783280642 0.01084591503573256
670 -0.8188328789338468 -0.3412637253204114 -0.3376860889482315
3889 -0.9680297078486323 -0.2607809997762675 1.023725131662452
3184 -1.4971489435044725 0.769886365141842 0.603154998898443
1201 -1.8061057003471348 -0.8032738367288177 -2.1500346130377626
503 0.26078036368720636 2.2261409051998187 -2.6778183388137395
1582 -0.329885923784989 0.35184886359043915 0.8054984855345062
498 -1.595148136039509 -0.43178819469414603 -1.1267906344028082
2050 -1.084271449858527 -0.14375603787618454 2.0053470630600465
960 0.7969996591474517 0.30155663950826633 -1.2524758659073834
495 -0.5014137762175572 0.21668080703695392 -0.45570883341752033
2846 -0.8753268612567702 0.06952662358566013 0.7897060319382117
3663 1.2574073206597896 -1.1082044982842034 0.30599379692147605
2337 0.2443302016825299 -0.04579314034121455 0.17444192290983107
3053 2.021334604203453 0.06619137803152009 -0.03363915856932515
3301 -0.4068183037479867 0.03393489848775366 0.30376414067146873
3709 -0.4707253054661539 -0.04989788215145369 -0.31171084804779
1998 1.1992788751867391 -1.3929484939468286 -0.14020211757339435
105 0.026549729644017413 -1.2659794119430792 0.3975185373292697
1389 0.2648185520469012 -0.8449400265950383 -0.6964879950230494
557 0.9059346650363156 -0.9523067674461574 -0.22246232318805892
3583 0.6162784883495163 0.06593907966265923 -0.414902303881124
3680 -1.9662195089425594 1.851349918609326 -1.724851381626461
1317 0.08752720005159303 1.4666975708549999 1.0313081792306604
3475 -0.1871992012805232 -0.48905251787876347 -0.04108790804420674
130 -0.41740095729691606 -0.347417544522357 0.6881179606983628
3449 2.893027472065804 0.4257273576553607 0.6965382126045155
1145 -1.3581986037672305 -0.6438264315583977 0.37109384336217177
387 -0.8674708302077967 -0.38473130263022315 -0.34776113289433125
1829 -0.10050948822486629 -0.43342482794143566 0.034348822399693946
117 1.0427589512270317 0.2513345707020649 -1.3646320706912545
306 -0.3526002405078581 -0.8649935029350898 0.19045285609734408
2153 0.5377621877064731 0.29742555455041525 -0.9798095440495256
3969 0.8107749972288113 -0.4982331358229578 -1.507840491472584
629 0.0636932634932647 -0.9329080694885776 -0.09139846304085754
287 0.5326917904676423 -0.1992967220782041 0.2783384315551164
3317 0.4568617547550994 0.5873535351316579 -3.1416331882629853
1637 -0.01960694563107196 -0.7957434643017669 -0.7685475914125489
3166 0.1686702536969359 0.011493916305156615 0.32569695475985255
2192 0.9753681722464906 0.9913165929306698 1.333739472450226
2716 1.443947770245415 -1.1344610890685403 -2.192815180999139
932 -0.12874633917659822 0.4410407340117143 -1.1972459242834455
2174 0.25064267323130646 -0.20240587826304596 -0.24200107080994168
1493 0.3645921830929084 -0.6502846145390216 0.8389306023306025
1050 -1.022055651654191 0.34405158555822896 1.3824479515653452
2244 0.6563030518613872 -0.804070418792951 1.6886157757484805
601 0.5675974789309609 -0.4023587038404078 0.5729393077593717
3403 0.9361676521091594 -1.313416411417262 -1.1807769188518544
1383 -0.03262047137413106 -1.2412681113007569 0.21875580071360287
2774 0.32361120841230406 -1.697664037838903 0.03746046971266072
2805 0.06187707120633208 -1.4636082374488248 1.0891681731595393
1387 -0.9802499470047743 0.42592796662594434 1.7744327758934528
732 -1.2432218648567541 1.0459864772880867 -0.6781716008899313
1494 0.37731967649237763 1.107839930558967 0.39988961840307263
1903 -0.34865251962839333 0.22036320134158136 0.6748682677177608
2201 0.44242022954067667 -1.615501641818643 1.2492047283008478
2287 0.6436370492852912 -0.2508230499048009 0.4611444904952119
2939 -0.38361952291679813 -0.8771446695895603 -0.19530381595245633
3716 -1.230886405480625 -0.9113218452576866 0.25627867746843114
2885 -0.7438883743091739 -0.08328599369301702 0.3743762225661733
2621 1.4963038065296261 -0.6288817188300051 -0.48307008234712107
689 -1.0738790636766582 0.5975050462015249 -1.6587102471658608
307 -0.4765964764173283 1.3126692341405117 -2.0745277772538904
1302 -0.06349486921152832 0.8050822986059173 -1.025552971910949
3208 -0.0785520102397816 -0.06694326889028127 -0.7439584055881749
3366 -1.2005463271537202 -1.2190029884263152 -1.131152875137343
95 0.1582660238132692 -1.8545285980033817 -0.3431534697762923
1328 0.26864202235547174 -1.1502016408378277 1.0615423020084405
3332 0.37664050712558644 -0.052125599302283505 0.05055939670233925
3808 1.8887459446114352 0.03145634937665779 0.817226444324697
2933 -1.02422745412669 -0.7624452243413211 -0.971205606349787
1751 -0.2965019987463129 -0.5468213383644364 1.4096118904809798
3346 -1.2214627423617543 1.3071358693653052 0.09137392282323764
3390 -1.4691498309421922 -0.12611706237108317 -0.37358285934748076
1621 -2.0342857857416576 1.6813775621084155 0.18267942229374273
2365 -0.8985968036546074 1.1757996670779292 1.7624053079226556
85 -1.039793472429997 -1.6116371816210209 -1.2997623956898385
1712 -0.39112490476330025 0.612507166519048 -0.5330770255934718
325 1.2219526372474978 -0.09586501707689271 -0.3474084732185928
1823 0.9745701151651276 0.6540873234202819 0.35641971754139024
1526 0.6504273958056739 -0.8720583543171117 0.32113347874853204
737 0.5971100707842109 0.9283328609680621 0.052776891997700644
12 0.9023722161248721 0.296567933535284 -0.20024774938070533
2062 1.8604881373394815 0.7117716950972468 1.388934912674766
990 -0.17020165990873934 1.0481259973616952 -1.0391478551106628
280 0.9905375391289588 1.3756410365559053 0.1580422507865624
3512 0.10541939738107672 -1.0179898305562607 -0.41154247578522757
750 -1.2533341568136713 -0.7617860229525875 -0.025096577995268685
1915 -0.038085107917821145 1.487710262216858 0.47047045823331035
63 1.7602845197837709 -1.9244340004543654 -0.049307339114995526
1561 0.16277348630387128 0.831064582052678 0.8287748062271028
1715 0.28863469183726004 0.26201513275287586 -0.026515828041335524
2503 -0.3079079727214454 -1.0760609762736326 0.9159086991504031
2322 0.4858762409519389 -0.3407237565179088 1.770552703741529
1548 -0.6813549438823667 -0.20009528900063264 0.8492417149154272
3063 0.7922271970897049 0.9400568499065813 -1.477908800648611
635 0.31647144969567587 -0.3998580799480152 0.41010027738954274
2423 1.3162061431463343 -1.2685722121417304 0.15626193970806157
1492 -0.7274299982483646 -0.4176316821273465 -0.3554478997596564
1384 -1.6761155215389134 0.47863830418785214 0.8067804412370769
2069 1.3182346012057562 -1.428312173106473 1.4679088913237093
3883 1.4002232500732168 -1.6953329123346979 0.02428914223449312
53 -1.0051733325369 -0.3660330118954958 1.152978639252905
140 0.1939306524510703 1.6338226505112563 0.2595296518644796
2068 1.1218072484627788 -1.5708419540190963 1.0633231725674015
2045 1.2679113353435387 -0.17334131837309827 -0.6701782269866378
2034 1.3053718619053756 -2.1475438293855498 0.7799216576868893
2829 -0.7274165964324637 -0.21769894789203115 0.9221287422005537
452 -0.18621954363519455 0.2854555757872415 1.738103391697074
239 0.10304387989261247 -0.4981980672134012 0.34602172724273295
2171 -0.8067452486829935 0.1899785460371823 0.3567679297545452
2052 -1.1719236414905954 1.8076671528775612 -0.5781659845842526
3597 0.40402296889235195 -0.332768767061763 0.9976765172541111
2609 -0.4457935969339303 0.18728898379502057 1.04344836834763
3638 0.37925212191722973 -0.11988633690459342 0.2675022420310519
829 -0.3706600754911038 0.006931341894668062 0.1389994904656916
1366 -0.4230579529222853 -1.7187743577584853 1.0491033586921619
3990 -0.10610999201730205 0.9014401353982431 -1.8617181658241977
2867 -1.6882605773212047 -2.0396384037271726 1.6398708693298716
216 1.051681766074819 -0.2232628572837556 -0.11620786618513329
2073 0.8443770025617546 -0.8644671196975487 0.8621456129825669
1546 -2.694099168823139 -0.8964344957191313 -0.5993059121499149
3821 0.7857384155455389 0.6982621434930159 -0.22604480105249758
245 0.8800015561685528 -1.0949780337906807 -0.30229418673103753
3140 -2.324545616799968 1.6536085183677656 0.15517866805630876
2143 -0.991819524920268 1.5181919893273823 1.7553651576421307
3915 -0.8467815126550143 0.12877083989127242 -0.45324282474973254
1124 0.24969670889665918 -1.8781050175825038 1.159061159780741
1837 -1.9819096362320276 0.28665984438089553 0.5808979912401566
3651 -0.8207146772162918 -1.211360803920507 -0.07594743171821267
2713 1.084715502824335 0.10497537129935856 0.11281404847781683
1164 0.04633335676636819 0.33543899103646596 -0.12355354946580505
3368 0.8141618490241177 -0.04065061281476819 -0.013304351631847903
781 -1.2337268907152732 -1.667119715764784 -0.18011963284381155
1707 0.22360085149046763 0.4442352123092854 -0.5769528898295816
1968 -1.6373297425434357 -0.5108130960492177 -0.8633599508634914
2180 -0.025667007929290206 0.5541183478242877 0.149169400693677
1542 0.6219558852811199 1.2334745400438782 0.4051526490564341
591 1.108301582064157 1.6592759163070376 -0.9509691340012927
3516 2.1388298448466436 -0.24113260132028658 0.7211149901115431
2987 -1.7919765304866928 -0.28116279024678853 0.17226063102830247
2891 0.46869025396132374 -0.16824788800758678 0.0747231836195493
961 0.13247355231336552 -1.6104444439615146 -0.8088058240426184
2666 -0.903324618300841 -0.34049307819773333 1.6032059277019082
2538 -0.1326044185170908 1.4241748311265656 0.612793461646704
1567 0.7970030581038112 -0.3370712315175962 0.3972257743502069
3855 0.4696051276138265 0.19578376813802637 -0.36942107091480236
3654 -0.6450286133096254 -1.6028808978744864 -0.2599735041318343
630 -1.373876487173221 -0.7097534005136602 -0.0828997723226405
3382 0.20484782139899538 0.24218275060797254 -0.7313641408546239
988 -0.8742257369944835 0.6658208518246209 1.3163964959887409
1609 0.9200524450422006 0.8443472507497829 -0.17771274098275108
3802 -0.5152537178914317 -0.49249702995274536 -1.364016610126629
2480 -0.072744412120953 0.8131335519785713 -1.5183428843570332
1537 -0.3580401069191506 1.2309936303110016 -0.11802302592551933
1297 -0.9550296178241815 -0.8142679108458297 0.224147027581983
1835 -0.4186406375573336 0.7384169067090243 1.1597416425078988
1784 0.24600532194199679 0.5419085991900742 -0.8492167997245098
2380 0.04768226396365602 -1.0688134176629611 -0.10008699821737704
3993 -0.7840663404168258 1.0472752912837722 -1.6406563679309483
877 0.20910342839297308 1.0664769592732197 1.5669143383424882
2085 1.6831032309084981 -1.3450024594458119 1.5068577033191541
3826 -0.9103116019289863 -0.19659950494252554 -0.681218726040568
965 0.5933584383960194 -1.0600631598236308 -1.1842453211842525
1204 -0.12838557834679568 0.48246646431694395 1.257467512553862
2578 -1.6480646117215216 0.11448215901884813 0.6229499224862987
3389 -0.6657953758407112 -0.9893362872110035 1.5646239784910694
31 2.783548015514901 0.031057916787546505 1.8992036732126418
2056 0.40341080822981545 -0.5489198856399281 -1.3665277870317947
3785 1.0955988487954067 1.2846922055383954 0.8474620072015419
1596 0.8356281497532615 1.2093278493030293 -0.6205453111629435
2604 -2.4026438869170463 -1.0515431885160107 -0.8042187552598618
2444 -0.5718624314561236 0.5300168971717257 0.13383299493518958
1000 -0.6791263351127226 0.5870482744995058 0.42479450174298844
806 1.0098936986696254 -0.2926342997806299 -0.11345830352379994
110 -0.823905136540686 -0.34548536189572343 0.46289058704142627
2070 1.1156796344211355 0.3247977076117997 0.5240623967484689
2178 1.4350986611736753 -0.9977836159900544 -0.903974638634323
2371 0.6410234347687065 -0.27403043794897886 -0.9504219193344563
1465 -0.27050676970827997 -1.5750412890239263 0.6225471473271096
223 -0.6713887472244812 1.2545265829360799 -0.30075878975685416
1393 1.1425652981985102 0.684576839192165 0.43085350199683
3517 -0.4434093639925037 -0.22969320966082846 -0.2987103513328664
3521 2.3390426090888914 -0.014647992620587889 0.7639852001817551
1380 1.1880824547612414 -0.06520137795991666 -0.6912585324842695
1740 0.6361278014424817 0.6856969977869278 2.1948938290079125
3342 -0.6718763745614387 -0.8828402225382993 -0.1357178576024312
1948 -1.3135494676448591 0.7235581762672677 1.9411749663476996
1354 -0.5052164817292102 -0.6139647162712917 0.9780650696737209
2120 0.8332400225458881 0.5319651932141565 0.5969317164194963
128 0.7490956018249727 -0.6639376524431693 -2.7739123969945827
1205 0.4002359668965747 -0.5654927110672804 -0.684910691548316
586 -0.37605542422092375 2.0310292605496936 0.3914001286445039
1129 -0.07980787994107576 -0.1580989426096389 -0.3874740445097286
2591 -2.082492129235374 1.2004116185767164 -1.3859107348359965
2587 -0.2276384645022271 1.897075728860151 -0.48572841580626563
389 2.417077384925648 0.7257676969299914 0.21351013208391662
1060 0.5323088384495518 -0.5003139380325042 -1.6580147183310583
1001 -0.6983498687156685 1.315279418268554 -1.3919588159092802
1980 -2.39637180448761 1.222387682073558 0.34804217800161463
3770 -0.9862182885444933 -1.7819174941678673 -0.13724389352639318
1568 -0.5049007565783674 -0.45510218889527 -0.8742000559987269
564 0.9468591408878103 2.4043830679486384 0.629271967547924
1508 0.8516506160993267 0.47468899427738737 0.6500185612199537
3540 -1.6028981772583835 -0.9666682882170332 1.114886650998489
782 -0.09202137672872347 -0.18921234220661212 1.0032454884516397
678 -0.19249112904663584 -0.9342292454107805 0.15250557557308841
453 -1.7924844680804848 0.21362571244357584 0.5911775524820967
3584 -0.8494542877393982 1.7823997845630717 0.9762771129631919
832 -0.09768922631651546 0.12322673995037856 0.37908420931492415
1689 0.36504317509511564 -0.8487056667832897 1.4385256202374925
378 0.25234300933079096 0.6201023702458643 1.8460824409782675
152 -0.6680084667877739 -0.39202636378948147 2.3900866841013517
2232 0.6569535898667012 -0.3714345851379868 -0.10807501643915493
3810 -0.38121807631977767 -2.139543742609797 0.15283708906446328
3579 0.031141740518620988 1.7050150508437316 -1.8989941131706485
730 -0.3507179608822543 -1.6561897850236964 0.5722288772008323
3266 -0.696894174452785 0.1399522189379671 1.3660420304533831
571 -0.0444065981995066 -0.7318314550301163 0.37969526820044447
281 0.13412080709366633 1.3087302404689003 -1.2624706974852318
338 0.19232169813221617 0.34052594514379064 -0.02610623041945328
1422 1.37350537997849 0.17840561331258267 0.33715563907308477
3168 1.529673527196233 0.06750481538891845 0.7661044888086977
1251 -1.0945285528055853 0.8420248475630867 0.4029591989346107
3610 -0.8287447336930522 -0.1552696325621038 -1.3267869011754014
3626 -0.352183188307728 -1.5781232482240688 1.0383625675379522
3433 -0.35970573576413617 -0.19462321238834274 0.8571058185755246
69 -1.1545179740494456 -0.3278232554073161 0.17098459441013916
1118 -0.6894154778216193 -0.5166405688104461 -1.0107333164167305
2945 1.636474162802467 2.137387857464578 0.3556396705508454
226 0.3788684739106731 0.37546760397298795 -0.4705334542352863
972 -1.1004276038345249 0.3851670748878834 0.6815354679253617
2932 2.2924405737788596 -0.4399896558438569 0.7747432131811782
1375 0.46520350976646274 1.5863286935614644 1.8015915381444119
235 0.24525223636807697 -0.6530633985791596 -1.0784889255330588
2028 -0.6262857771834023 1.6129033425261075 -0.7261948408949999
2385 0.4883568019882263 1.0487932049766562 1.9300221093035126
1859 -0.41652724697852384 0.09527053338935806 1.255794914319954
297 0.06291717223933624 -0.11586150760406151 0.7872152785856918
3981 1.393700766694486 0.5789955159233796 0.707155872810487
1127 -1.7839165554331773 -1.071334194416991 -1.7579201406993554
3974 1.2858632906953975 -0.002524472261637772 0.024573450930185644
1553 0.19550004058803164 0.9438089145676066 0.6359610906434007
706 1.8155640442822227 2.6360543661708005 -0.6900998973735052
3189 0.5775425873357312 1.433528735725439 -2.2565585107297443
1177 -1.142359574873801 -0.7242319464009318 -0.8178504468886374
3215 -1.1509844723496165 0.08897445819976327 1.2405194033699343
924 0.05638205048637492 -2.1998744905167684 0.33066456488491747
1217 2.1813365939028095 0.2361013807098998 1.9357012034236003
1807 0.3270460835205996 -1.027604319066246 -1.0501735318471639
2486 0.6526618726727372 0.8518465848359327 -0.6759573354445955
189 0.6432439273975592 -0.1591591383476926 -0.10502826692344654
2081 -1.2553984004989802 1.577310392759904 0.9232703760291756
2883 1.847442874160139 0.6832204589008088 1.3650217285202666
3116 0.43204176777343956 1.3960270329000555 0.9855567758926478
1423 -1.700539666567766 -0.6214964940553024 -0.06863882996220456
1913 -0.02256928152960651 0.6396724668061163 1.1327380465417567
2984 -1.551112131524896 1.7474769462893933 0.440900312394669
800 -0.8662928290399767 0.3801965882047625 -1.1290051824152774
1950 -0.2762892800078187 -0.28309355111868 -0.7345821524921573
3042 -1.3531333673462447 -0.6226995616154617 -0.8713478555692682
473 0.5887241686761739 1.089638500858365 1.0892564764800865
2072 1.2189697880306347 -1.2234609926167173 -0.13393085912812291
1577 -0.18076972985817036 -1.2564129112103293 -0.20495541789063088
1709 -0.38221894991599 1.45632216887053 -0.8522274911695238
3614 0.9384914255272461 -0.017006030699379622 1.105379832153868
30 0.23141638600400913 0.519254336189941 -1.8043906909727645
1285 1.6937463427946737 1.1801584784238075 0.009507573333244519
2996 1.1183255917778332 0.39783403622312186 -0.7594936839686028
2562 1.05399649796916 -1.4865413731740906 0.38317338199188394
3856 0.8745277723063049 0.8176634400018883 -0.6085957303091459
1092 0.3767495654492856 -0.4925582532383194 0.5147474528485986
3919 -1.8481175162331316 -1.0985289300507513 -0.5261664870519749
293 0.3622523878552913 0.6010155122631209 0.6877314335310193
2122 0.05025254189909541 0.6073161511320088 0.39192729813919586
1349 0.5555606697012831 -1.5443731230105795 0.5748230722945978
3349 -0.30448621404690296 0.4462401870710419 -0.1928655106887335
2203 -1.0760920438853034 -1.468550115000453 -0.563515476950734
2783 0.8852489380243354 -0.5064007768319082 0.2573452257996396
65 -1.7859866010198913 -1.9050321213093224 -0.7231181924792568
2685 1.537425605075005 -1.0255463445219888 1.7697387032350163
516 -0.3846163125939463 0.6025257422012005 -0.6712054429498746
958 2.100180115428748 0.6781896188547704 -0.452200709656768
3047 -0.993038332111945 1.4834272635315096 -0.308812925899642
1536 -0.5854702019963266 -0.46804878927813676 0.8072042399962487
3080 -0.26670489819731236 -0.15123106836949302 -1.2180891120179906
1556 -0.045834563062341085 -0.16047365334129168 1.3484887440491318
2650 -0.18886777019706324 -1.4556125085303386 2.2117975730399784
2425 0.5421921485125191 0.38530440382480824 -0.5499961803260742
3036 0.7909228649605194 1.900323335008158 2.129443435560941
482 0.10800858564548306 0.8721660418590095 0.19376355433301298
1787 0.9495181144294552 -0.45569782355317956 0.18579995500509228
3078 -0.9711425275350193 -1.3882775329841266 -0.3816486384571357
2512 -1.6438704143582543 0.996503761201652 0.8308559493927796
1631 0.2410098576741708 -0.22521579938886596 -0.03192294543524533
3850 0.4583482781892265 2.121608567403868 -0.13867541175645243
2497 2.1125591335006075 -0.021142919524025392 -0.49272815361959815
2576 0.6483995799753307 -0.41568712045411144 -0.600880634017962
74 -2.444056328078452 -0.7026614335746315 0.22120385391261643
2508 -1.2999706534503213 -0.8231757930992221 0.12922035138878982
2689 -0.7314315897067518 0.36220206479553074 0.15091000793025752
1296 0.5801377603553193 0.6432580070624752 0.4193395078766131
998 0.9534548072084021 1.1162725455623759 1.2642110183114317
82 1.2533738332496556 0.9392883001967371 0.683727778239734
1345 0.9134582502576375 1.6249403105373084 2.1072926999016492
2224 -0.7219011967819329 -0.13497614282017856 1.1177494656531342
2059 -1.7772786986048315 0.06453769245232266 -0.7043818850081931
3684 0.26526104093163927 -1.649490360855362 -0.9983548615517996
3582 -0.548368234517174 -1.5372852227937674 0.5851021429901533
3148 -0.9513286891685431 0.6101263197614644 1.066381679418315
1262 -0.7341788561559189 -0.33654719627036306 0.4242522543808052
1159 -0.8282519179515458 -1.0826716611647895 0.5227066844241824
2413 0.11257832947973596 -0.755707590759888 -1.944130910831284
1963 0.09768027432131829 1.5846989144692092 -0.10600968791298858
3504 -0.3907727772214174 -0.08055563457403592 0.40466915578094437
3963 0.9792611724089061 0.5207316362789337 -0.9685686243446117
1602 -0.3270790578952256 0.24274066051459403 -1.2193211770619552
2509 0.04880850352371931 -1.3204172287704454 -0.36931091345013506
3706 -1.858456004787531 -1.4633531417890187 0.8657378705551071
314 2.2125372758968815 0.6789065808389748 -0.8374891722320633
1611 0.04847315346283551 -0.4923687433073746 0.5951413616064091
355 -0.23354453122776814 0.36047215136455907 2.652754794797175
814 1.1381087217061496 -0.11585799963145486 -0.5825035403278794
513 -1.4876503096455682 -2.0600590051974312 -0.38654276180127156
2809 -1.6970840761751822 -0.24285393739210576 0.6516630369217622
180 0.13036848577422608 2.07735359336468 -0.9279585518497085
1490 1.3767997231187123 1.1709451192653566 0.20389562254626023
92 0.5884717273548126 0.46783164709859854 1.1895468879461981
2061 0.457262683278439 0.040124838965851624 -1.8548851110998863
2873 0.5333322052843887 0.43511456449612324 1.362177040957762
56 -1.2668126405315778 0.8062998972413491 0.2927023479631018
2690 0.11970543724740064 -0.25325637579999133 -1.1769045301075811
1747 -0.7434841210633074 0.44224140590591005 0.6285622012557617
2620 0.742679779629453 -1.655841318033662 -1.0580831471437375
3912 -0.7762444115228219 -0.46402954861767487 0.45939333159712487
950 -0.6278922697068446 0.545829231988631 3.1375230705517954
1125 -0.9238961907243444 -1.829812926340096 -1.0668970761610928
2674 0.8023038071285576 -1.5446087124994652 -0.22811623307038006
3519 -1.4978632127648284 0.8657128482254683 0.8436587871829128
3608 -0.3067362730812552 -2.4210691507798634 -0.5795870218438774
2533 -0.8493063302591646 0.8378489807988667 -0.4917764608681938
3728 0.7115340294800931 -0.6498646353343385 -0.23181854229297277
1667 1.0118231569548364 -0.2278146507571526 0.2989426204100915
3647 1.3331955568260176 1.1776255542901268 0.5751121259121246
1607 -0.23373999486182648 0.6832276096229305 1.624299985519491
3396 1.923966346566495 -0.16441795893715724 -0.8946413272046255
962 -0.8816377942214596 0.9524003994275977 -0.7074292643314619
3763 -0.46817399021953104 -0.29767587433769116 0.9194530229587712
410 0.3202905374450516 0.4208399522321711 -1.3256980478896527
521 -0.5790208735227423 0.18006803396157578 0.6925625940766289
3578 0.7821851608491603 -0.6170639356452433 -0.1014643722541718
1780 -0.34060912422399786 -1.7015044978073963 0.6806090624479778
2165 0.4156586242174476 0.6264076756279048 1.0491362177518029
2383 0.020753756755525106 -0.980380772545857 0.13594003565402754
1991 -0.9479398830897324 0.10014518959458679 -0.5697494203251331
1061 -0.3144960688242934 -0.4462374513771258 -1.2047090730259111
614 0.3965962887047004 0.892078519285743 -1.1195349795909653
2543 -0.2087637660302609 -0.8107852304451706 -0.768103703584106
2890 -0.4574562445806801 -0.4188733477217254 0.7073435770902512
182 -0.4267240467527216 0.5185038374931007 1.6836071658616354
3409 -0.5713850458575966 0.08126244258185845 -0.31983261050840517
3622 0.45525949103302926 -1.0084864589607412 0.6238663095592492
908 -1.3249845710644108 0.08636313863957286 -2.59350123580476
1051 -0.44478045439625796 -0.651366415670605 -1.5476245692275494
3318 0.36519414086949137 -0.02867155886514753 0.918827686078711
2711 -1.328813590091163 -0.5169128621259349 0.6730666924669411
815 0.21729527535642487 2.2736208432959915 0.4081097481969442
810 0.8741493478074509 0.9379944651594524 -1.1902548746202284
60 0.7356438983327751 0.3426602892989406 -0.6704141560651369
3441 -0.24805664740968655 -1.1068769064698838 0.4627031367515913
1239 0.6120395085443388 0.7890281674024228 -1.5150207695833462
244 -0.7230842687098723 -0.4229775675934697 1.6335681925029235
1641 -1.771097862922143 0.38118297897099834 0.22031496783205176
3755 0.36570935606688776 -0.02480861613890338 0.6690884683544053
2402 1.3165009224014494 0.3212974396540995 0.3135366475761101
340 1.5727195520601884 -0.03166116057096381 0.6418729779447199
1646 1.5797064049815124 -0.006180256377203063 0.044659281091997564
210 0.20351457755904317 -0.0722446698666451 1.0244313607674067
916 -0.46690176771430747 0.25151107529755007 0.17694481627294337
121 0.578926661597209 1.7875618548417664 -0.42562902960434396
3624 -1.1142282576278006 -0.6328471403118019 -0.7286678847823337
3163 -1.6493498431621678 -0.036151075115226354 -1.3757698957478948
3551 -0.9383241901031792 -0.20074198911522378 -0.2395041195024931
818 0.9148156005118485 -0.5860243063611064 0.35770856265218043
1414 1.211011919708625 -0.6002225897567413 -0.1933093494901878
254 0.31051474959553654 1.138240728200316 -0.5535962806284065
1407 0.3013684597539772 0.4793349425144235 -0.4648135465961215
3596 0.9936643072601111 1.0342578406570835 -0.9707593481133123
3095 1.342659842409631 0.11398334332593664 0.291974211775965
1653 -0.7421534063502319 0.21543858462640128 2.3606188442796063
3257 0.32432248196017394 0.3439194471348526 1.5792917872074774
1644 -0.13699276690924822 2.2818473475116456 1.2504071954014215
2639 1.772346105471256 0.8611420411049218 2.4783024330761836
323 -0.4164938393238395 -0.09769729695809505 -0.8348726598623332
1846 2.388059138941976 0.7955413048147648 -0.23522576285129537
3594 -1.1277069376002398 0.8812387231980945 -0.5215754067060193
3791 0.2213852936139171 0.00571476483417404 -0.747099467438861
1651 1.7042461491581862 -1.176793637131578 -2.4537347469715938
1409 0.42105614455437546 -1.5462190827315745 -1.287115875415118
1933 2.010579975615816 1.0153113031400443 -0.9991625925624928
1673 0.44779506064483193 -1.0147750065129073 -1.0458892739549903
292 -0.6293382838908772 -1.3108618589095675 1.6271808900531743
1919 -2.4827085179114987 0.4191901756754854 0.040012806492476384
2931 -0.19622817267526418 0.7874706187706725 0.6306608949639227
2447 1.5425513132189683 -1.088878454910156 -2.0661274366687685
1557 -0.36135050776260075 0.6915420091068032 1.15125603898304
2741 -1.0872694723304808 0.4003601542534231 -1.0841359881708847
2101 0.2656586595982102 -1.6481590293730095 0.5154510132680159
718 1.3816569240708403 -1.124775575558507 0.5532710399719819
1015 -0.682223052015781 -1.0676555771797596 0.31703079123919126
411 -2.151596810847881 1.2409435858427196 -0.3515769752755996
3867 -0.7081525935723236 -0.0267874975697748 1.269580826274664
3695 -0.03003696935434535 -0.3513797694762113 -0.31836732458169864
848 -0.5297248320346084 -0.9256740275115535 -0.10042722967412036
3412 -0.6070259838953576 -0.4382533727014453 -0.769566163814234
3739 0.6081087988558644 -0.29455471908913355 0.8542708423614299
1874 -2.3738707110850323 -1.2798545902629843 1.1700908115688844
1305 0.15886121940479883 0.5479323304782405 0.4081903655128127
1229 0.878086423823963 0.5165912768462484 1.4495291680180584
3652 0.9101417579128981 0.02988115159043186 0.8561210959455817
3303 -3.1634540201743446 -0.08347081206172051 0.5336344084020195
1268 0.16681953802590618 -0.23337051546548981 -0.07139106190184251
3916 -1.9370852090283026 -0.6640728253620718 0.13615612466521637
251 0.650327725618292 -1.5253786256936597 0.06937575295989472
2396 0.2599644212622032 0.26961439837500223 -0.23108366712455766
844 0.3700092597453791 -0.3434958503392695 -2.0629841157752384
707 2.7419834633574323 -0.3070513918692974 0.22047049965830623
3591 0.6646625576775919 -0.5445903140395488 -1.0529244908052602
45 0.6328588835585502 -1.3410116073165477 0.23874603700295702
3160 -1.2332533558818912 -2.9725843392993787 -0.9477897420161364
2956 -0.8539177807614515 0.38101551277877577 -1.142205899891915
137 0.6624593532765098 0.47865566356707084 1.5662998838509263
1128 1.1757714737017075 1.7756416613658326 -1.423227992888055
1064 0.07120622095844127 0.31255857573910406 -0.1924867094538773
1589 -1.3043645916622075 0.7512223870301844 -0.23807680360223507
70 -3.3714219317344734 -0.5519247905109772 0.6546810831367058
3848 -0.4492396161520414 1.94798390996515 0.597980201353753
2077 2.373848889203704 0.8056904610121103 0.8502601095248284
3152 0.9025755779982526 -0.6683860589848354 1.0515603554629147
2681 1.2841707892506382 0.39965874174219357 -0.4738700450389894
3862 1.705514402583955 0.755098274778395 -0.5419625723698022
1690 0.3813490837172119 -0.5615332226141256 1.5483336013877846
1178 1.6973982460889614 0.40519878123056025 -1.7215286600975934
1006 1.0125631768782961 0.3814585377303339 -0.6320186222966576
2008 0.8777451823381062 -1.001459001202744 1.040921526618759
592 -0.24554978579761716 -1.456051097143885 -0.9370941961015093
1281 -1.2021050352426585 0.011616931437723943 -2.7851834336861554
1052 -0.2669115041040733 -0.9884250066101419 -1.739061195126858
544 -0.30165454034146677 0.42888228849883 1.4235020352631638
2114 0.7058990262321232 -1.0801981565798788 0.7921654568003538
3005 0.22679417926964276 1.2289243482229864 -0.27031329792727704
2310 -1.5912430885024043 0.43853204976920435 1.27179647236778
2328 -1.0787936531194275 -0.815642667836442 -0.06264236537445822
93 -0.4788045474141198 -1.372024602478432 0.10628401332126573
2225 1.2809785563873939 -0.6438869049214148 -1.1098753651538942
163 0.6658151251306583 0.4327990402230761 -0.3944166339016272
2673 0.7980097909600087 -0.1671680554810992 1.7355228071832831
2472 -0.536352756520156 0.43535188436168615 0.1380153860200544
357 0.3921406385352952 1.6442415411295208 0.1664952160034028
2206 -0.49517942896993916 0.3287419030695218 -0.6854441798740484
3268 1.1626384693156395 0.918180094158699 -0.22123554234077816
825 1.0072031761366425 0.2021037288065753 -1.4611977626338304
127 -0.7661872950845071 -2.4816148001473324 0.12454775914788775
1225 0.3873105818498032 -0.5225260907721363 2.4510406438102765
1190 -0.37812383223862106 -0.042606684775214364 -1.3303449347159262
1965 -1.0230496806321339 -1.1331716135449608 -0.8809428018721305
751 0.586785578214455 -1.142564803483814 -0.14044638364993622
1207 1.5032815949852705 -0.9337762713017796 0.295870855356082
6 0.45728119823159324 0.44916856794721216 0.49790880292565065
310 -0.5181262647888183 0.3820229511721303 -1.0884900378025189
3633 -0.8973070761746158 0.16837096794518633 0.5980254385223943
2960 -0.02705336926061728 1.509607128466134 0.1806503666295236
475 -0.5873632514571941 1.5894634117509245 0.3142201987935912
2887 -0.19541604719062486 -0.31407531330057276 0.19988073968454853
1182 -0.6822147239459059 0.3892787973870726 1.4568458172696432
2739 -1.208316356833433 -0.8932042011955416 -0.24668387802587835
1921 1.5748473893232464 1.5583277040050956 0.82755965298249
1983 1.4817538508680403 -2.645810217065937 -1.233878245609438
386 0.8914711228785758 -0.37170275060696634 -0.14910674000925606
749 0.5300549609419735 0.31761545714105327 0.9210058482662039
1955 1.465075259677621 -1.051691722906459 0.8158140300516359
2907 0.19929835253930514 -0.40345992187238233 -1.583474480506792
2909 -0.3457926842403089 -2.259775938675541 0.7766506183245034
3909 -1.374271502418311 -1.7795900567382228 0.7937372917622201
289 -0.6085047249302666 0.8745363899166404 0.7343780528435587
2406 -1.557197542885392 -0.92914587153053 -1.8147339955695314
1912 2.3668806702124106 -0.02291219760681508 0.045849851065057755
3220 -0.18169210986590476 -0.43777004376903245 -1.334578453056425
2785 -0.6391776286997458 0.8661591414160728 0.22897767251526402
3814 0.2387857282527577 -0.9676796400311561 1.1335284138057187
1969 1.0812982392361459 -0.0027473440395148546 -0.2796014314410156
2565 1.4363345184345764 1.2949427897433914 0.04258248214551219
1503 -0.15495717382113375 -1.4158344299208474 -0.48629961775588826
237 0.05697644041088526 -0.3715647955598114 0.7801590121414017
650 -0.1968193229834565 -0.17654837672903415 -0.1605116427068676
709 -0.748553201172449 1.2894632583114334 -0.5994884062612366
2245 -1.2416964283532261 -0.9323808127232341 -0.844535889533297
2858 -0.07483656989917493 1.9331441616021143 0.5429189412949703
3255 0.8199988326471306 -0.43532504820947776 0.6335209659919685
2617 0.12800881619468504 0.6235860586231887 -0.8542732687135923
3965 -1.2731848984750243 0.19151053983467697 -1.354532445198842
3387 -0.4201569330266114 0.5828348089007721 0.3207516838643049
3672 1.6903108698231317 -0.6514763567585753 0.6431037736941497
2877 0.3844609918217498 0.5277808017863249 0.6411551453600923
578 -0.005807477516840588 0.02598221067112359 -0.7168487811207302
837 -0.7014990634257843 -1.2470516669398979 1.4811659613119725
2908 0.7701663170916189 -0.12460724142705121 -1.9781792106617206
3170 0.4147450890997578 0.7536385748649144 -0.8297180716894401
1771 0.6138684793786621 0.5527308404690255 -1.3107927218815685
1885 0.6705227011590066 -0.04442876566871286 0.6894980908621838
42 0.14744970481773456 -0.010093145748523576 -1.923598658767759
3554 0.03334453302618177 -0.7563291889799936 0.09251089331352451
3888 -0.1754058815572836 -1.8275424203666948 -0.6665421837801
1533 -0.7207697616701483 -1.3422552300971802 -1.097189581109351
2998 -0.4007208764135378 -0.4002465321219506 0.914045832594603
1806 0.6287298062887431 -0.29310424464098533 0.3328330075381768
1992 -0.5951083423484825 0.01870104271873397 1.3521719711034506
2390 0.15773325006106179 -0.6282358039050341 -0.5231379109620458
303 1.531506176699551 -0.9505162781482532 -0.4857377172253548
2139 0.39427495287265113 0.6288727327706369 0.5575124916768601
927 0.7437240216539314 -1.2662806601247203 0.2577554120777678
1797 -1.6212746564869451 2.7420585251345604 0.09072527394625027
523 -0.25616430500376486 0.48126380264359186 -0.32968468615947044
1989 0.4665077640646787 -0.4746584895036062 -0.28374982784559577
3668 0.2982667462785714 -0.5233547898054728 1.6108173977072526
1666 -1.7497585832583409 -0.10996344877955846 0.07055188714911395
3121 -1.615790460033349 -1.163539229641875 1.2048517024336183
3621 0.34935897057174214 0.506013800805159 1.5033250283538657
1429 0.8876588891686905 -1.2786459567834318 0.4695642567743902
1192 -1.0198124314658386 -1.641701130048643 -0.024379058545335328
384 -0.8679403618011897 -0.154678764139119 -2.8358966455726224
1373 0.228776211268353 -0.19854347494159907 0.30364847672883327
3637 -0.2794620130639411 -2.0904742679122985 0.6846488759863425
775 -0.6549172845567599 -1.2317525515960315 0.6827148745067873
3611 -0.1253645971516674 1.1293615803140968 -1.1857741953355834
3114 0.1585375893240856 -0.6460358887951498 0.691255321668867
2552 0.23654802648851564 -1.3750409413989697 0.05417359244474899
1672 -0.7166184218009629 0.45242210770050456 2.132202136798754
823 -1.4102294962914785 -0.5337711496030456 -1.4522208340489808
1049 0.0183150271296085 0.4760819312524597 0.47270173602582927
3147 0.8254046040534744 -2.010296135108417 -0.6645201606077623
472 0.0004736567157555801 1.4388570530362705 -2.145909334271142
3678 0.1209818868141477 -1.5901817035487604 0.7719465741273593
1549 0.9334564352558455 -0.9936478600031002 -0.36887519989320544
218 -1.450076280859123 1.5912379743295546 -0.16755409215935438
196 -0.007961716013051876 -1.1852381837558188 0.029056066724694386
1242 0.11653724928780083 -0.07334337777533033 0.9310763513797442
428 -0.8538411177419142 -0.4755092160140041 0.9226971598002008
515 0.6065569309543973 1.0784410829576163 -0.6400424324442124
2318 -0.3809779668324086 -0.36523259686139103 -0.6310004124975557
260 -0.6578917147927169 0.5576562243252275 -1.810248325314803
131 0.3399839792763435 -1.2182274126668735 1.4363237489581981
628 0.15655219293952893 0.35004115395406177 -0.6539117485447851
1847 -0.2894559897426962 -0.21743568267041383 -0.919669323673767
1065 -0.17859425545407098 0.6751240909305078 1.0633807637830013
647 2.1580503974405447 0.3958964354574769 -0.9198181722340023
3660 -1.3643102444236297 0.6799283041919972 1.1133768820956806
934 -1.2210624912193304 0.8349916386879964 -0.810626215315783
2246 -1.0367455854956575 -1.1118603971353997 0.7428393819200668
3952 -1.1010145776322469 -1.003275177428449 -0.2993332010187429
1711 0.6125906784065656 -0.08835373201195987 -0.14875698201074777
3062 -0.20928598284699668 1.6699382790493358 0.04586753050733863
1379 1.4579737393034382 0.46375170547458533 1.4317711082320768
2792 -1.8356110728360835 1.7974583087370226 -0.17066732289065997
3040 -1.7006029361196613 0.5496361204340396 0.8497282007320728
766 2.6702403407134057 0.27821161945509426 0.7816487016583891
864 0.4839803458838197 -1.209245581975161 -0.1853829995489143
1455 0.7797060602609474 -0.08417663227318946 0.8941186342503878
3087 -1.0438961225464496 1.6678353448534817 0.2670587502369799
3231 0.6380512132263834 -1.4160061905526151 -0.24153965394052998
2173 -1.0652654045622716 1.8530385834226661 -0.9654035493674196
2267 0.23249696356676747 -1.4056279416130066 0.82331152738009
2761 0.783711295605763 -1.0454567330010096 -0.4058203758787313
920 -0.7071293502535794 -1.031091420771182 0.25072343507067085
2344 0.4503823125259611 -0.13949319522892828 -0.15012005379089513
968 1.7285129044712704 -0.6770354613585017 -1.0420019590944927
3143 -0.08098492725014818 -0.4241026369722232 -0.7194606434025386
700 0.4125950488663754 0.17643134699157256 1.2783265532092218
273 -1.294288896239247 0.4036710781491253 0.7958567619999889
525 -1.3141611317565207 -0.27740642269588195 0.6283098522786935
231 0.7363433461153791 -1.049257974392433 0.9754067210525763
2557 0.012185379723505831 0.6845395316791641 -0.03220132310952916
2780 0.003421526067568225 -0.35097116259682587 -1.7612324531078085
871 -0.05442642699455643 0.6105332028406899 -0.7327246126358683
1943 0.6747051431814404 0.5143895601850444 0.3286614078325768
2775 -2.2964390809346984 -1.223931183526903 0.5408137162721423
3518 -0.6824039025553604 0.2366588523085735 -0.5768956250312097
1940 1.193336945148467 -1.7422618758530992 -1.9297756650737161
3666 0.496601296312142 0.947221771650637 0.7909809086790139
3758 -1.3373396913593658 -0.5095408037762387 -1.3875244742550175
957 -0.6671454955078099 -2.7253764220167165 -0.28845059571794646
3699 0.06764793873562493 0.7179178169359026 1.5616654904475187
439 0.7250271747340634 0.2117593704528344 0.0012308389382151568
1029 0.9202760880206642 -0.4158161351354301 -0.33760202832136854
1699 -0.09722773520748369 -0.539866923996797 1.0155595355568823
2479 -0.9625909753905665 -0.6248311640534874 0.38132372667575315
3562 0.8242990384273463 1.0009228561565284 -0.2221488369629795
3312 2.4697012047675404 -1.2424962619605795 0.07968209387965661
126 0.6909963212914758 -0.7168026468331012 0.8191687678145347
875 -0.9677928280817505 -1.007483035917983 0.15362282031172597
2035 0.570498903375789 0.3830559153747079 1.6865719968063875
2202 -0.30629685230461606 0.48066677342851727 0.3174762411767999
2399 2.76464042945875 -0.4502158791676439 -1.319032107579916
368 -0.17571206540254236 -0.853306740974964 0.6277638211793406
1343 -1.058627362724159 1.0840721308296315 -0.0523961798376374
403 0.7800416647060883 1.1216037779888457 0.19377782397762078
393 -0.5223616113002737 -1.1004097887266726 0.16860907742879958
2910 1.2660985777268061 -0.8450964033932296 1.1835419666131304
3620 -0.36728902835612776 -0.3318434509077989 -1.760820487026276
3527 0.8132874908764791 0.7857433145122874 1.3113160217941968
543 0.8023568193989796 0.6413923431921754 -0.6841345154823507
3294 -0.37885749642124766 -0.6031638414248223 1.11104493745477
3026 -0.007716998028658055 0.011133710684592981 0.22915781865540588
3947 0.7012215894520548 -0.35902729464862954 2.12829618300272
3288 -0.8079405867979113 0.05849397560612057 1.275783609515539
2912 -0.4250160301916758 -2.320663484961342 0.8810239594602726
2043 -0.2924298010935024 0.04787597417141868 0.37665750833917117
2148 -0.9271274705517146 0.5244478970119675 -0.6072115905243124
2914 -1.0398741694548592 -0.19294454351451243 1.0880067332449217
3734 -0.023125421672393 -1.2633439613865292 -0.05449560356759553
3395 -0.6602932973538017 -0.7539451546854753 -2.207658762383867
1216 -1.8832505511127442 1.4355553439997633 -1.1976153538551024
3073 -0.49462821682596403 1.2243772368282555 -1.936240437169696
1160 1.1891762547686773 -0.16270149981176657 0.981602099620381
2335 0.5720900340638381 -2.4726090429065017 0.3581717832374299
2759 -1.2142412519268924 1.741080922068272 1.5133813177680933
1498 -0.5987243214950894 0.3040365272442757 -0.694875349902036
2753 0.4589687000412386 1.2791288048366178 -0.10727649038523601
1513 1.410518346451963 1.2224099174314669 0.09526714268019033
2266 0.15875282265878432 -0.1530451123729708 -1.2303487941591094
2875 -0.2422668610673003 1.4158090011827764 -2.1196684671124135
1563 -0.8469809718799572 -1.087267385812377 2.924057499448153
579 -2.619091448258906 -0.19155462701450152 0.32628559601546697
2982 0.8641538444089153 0.01878619644881991 -0.880382904625992
1175 -0.8681916702292953 -0.045924522907714004 -1.4428839171608057
2976 -0.25763208677897675 -1.8537050050829023 -0.3298100478409198
1210 0.3226860720502466 -0.8456657343840818 0.9064445438796769
3951 1.235298903368438 1.7223485753037673 -0.691149724942026
1200 -0.41635261509383026 -0.010727712428532606 -0.7716694027265981
1514 -0.6708247946104124 0.8846955590431715 -1.2331802683968034
3782 -1.4205936511700155 0.4133643940376109 2.1308454614203747
1265 -0.07279188175908714 1.634630798876918 -1.6661286674979139
3655 -1.5171836844751996 -0.22517941678222425 1.0494042963189225
299 -0.9535373575631881 0.2633283019256779 0.6982699711473089
1295 -0.6809606906358244 -0.030181144457867133 -0.6238590730401639
209 0.8730472257775159 -0.13547717424464759 -0.27999771237987153
2749 1.7180281764103427 1.2758971111119803 0.14772067722071106
537 0.07839755167756898 0.6865841446014868 -0.5512792998968391
2654 1.6123366135280648 -0.8612806348968575 -0.20593539992431809
3135 0.831414155954665 -0.7074400758969223 0.9522695602213844
661 -0.3491889704074472 0.2972663147722348 0.8073911543261779
1136 0.7004854915235512 -1.2033162721274007 -0.4702234804513438
2209 1.0422432906181465 0.3596027245340481 -1.796301267763135
2899 0.16913738442876042 1.3504230783748528 -0.3310387962678826
2950 -1.4963009876702993 -2.4196376668817314 1.2430128644401517
1594 -0.15550484083111565 -1.0666373342468285 -2.0034893248673757
2810 0.6226295820035148 -0.6203541480243568 -1.822404393472925
2659 -0.39295501759189433 -1.5422303827764974 -0.6778398605618227
820 0.1266077833671462 -1.1966511242163955 -1.3560238094939219
608 1.1968511393995107 -0.31754965407985464 0.40048589414191726
246 0.6305674139470898 -0.6378749434860777 0.6849400276945907
2516 -0.49402301159628387 0.5490703970198149 -0.276353597595739
789 -0.7811682400292622 -0.5341608811823217 -0.34156248414311874
3090 1.1329888014579192 -1.3198141902661538 -0.11492653103394519
3146 -2.4518660310745966 1.1700405451965539 -0.8918474773981958
66 -0.005498823020571522 -0.23643763706850332 0.6973221999715613
3223 -0.31115432541052807 -0.862206395733538 0.269118316370319
2941 -1.0018298319466832 -0.16256252548156386 0.4125570666330418
1697 0.8510090212483713 0.40138444396689793 -1.8461030187226513
2377 0.0782184717481033 -1.038223709223196 1.260253553332764
2366 0.5465172539952413 -0.7712916172944798 0.05599573532452082
2943 -0.877870264478318 -0.1313390018892308 -2.291967858972937
2166 -0.8458134888930536 0.4124315647529728 0.28017977227862456
798 0.09506963691745275 -0.3112309953589888 -0.08663117449291524
1260 0.8661364420274152 -1.0087247843626497 -0.5273631483889604
3105 1.0972849549761523 1.0113237926410457 -0.15986828966745792
504 0.28409105266689605 0.12252212401563599 -0.20313522520050697
3331 1.0555115449868642 1.9442208335844924 -1.5913114487232483
2324 -0.27961827605626666 -0.7129375377027789 -0.4706867972106254
3635 -0.6999288906381496 -1.8347355319341494 -0.11062401523735811
556 1.2763173657955997 -0.29380425966982854 -1.0207542930506364
3878 -0.2389639255689203 0.33898765325957797 1.3425563849558508
39 1.9417269479077721 1.846035781485453 1.1282829683391618
2755 -0.43299883041369414 -1.1626009127532495 -1.184420237519415
3489 -2.0887813348310225 1.427630867250646 0.1624375599053789
460 0.9753867649497973 0.960955085083426 0.707637287444023
1135 2.12194775041793 0.6181598593500073 0.9601095976119938
3858 -0.16246082979254695 -1.492517800635568 -0.34365094404515073
1279 -0.5119408271767282 0.7540961924766106 -0.49059648435939407
1105 -0.12686167545652455 0.33572351013754925 -0.7949247908596611
583 1.433657318328343 -0.673725997205925 1.307539898021543
3650 0.3640399660347466 0.07165005765413694 0.6400151861437049
776 0.08067111919593963 1.1999205576312675 -0.9937881221805767
1576 -1.317622550589738 0.3844417838443918 0.7203863003073618
341 -1.4279714719792682 -0.5450152246125864 1.2597643712176894
1116 1.0378910085947057 0.7722118627051698 -0.6021368716564467
2204 2.1922079902482494 0.8121934525665856 -1.8009310255089694
3456 0.635581365704104 0.727068858826145 0.4582312277900047
2128 -0.11759995208216938 0.7068442928170271 0.3660975644103249
3072 1.5042495942000782 0.4200388618090691 0.7210860499568228
1599 1.2425770289717835 0.5051876984447196 -0.013531024741906688
620 0.0036593428847023963 0.5093060466958131 -0.3737136775358976
3379 1.6609514125617648 0.4047790451474339 0.7232922518365591
2719 -1.265326711507045 -0.6487901345257876 0.4710318585845581
3980 1.1301125341094809 -0.36508444347940067 -0.054709280457119015
937 -0.5813281637731521 1.7637933301869957 0.42993871322246496
562 -0.555749937030328 1.3774015710530119 -0.06082527706292576
1731 1.1081330541953285 0.5598735646031613 -1.9257197289801247
3507 -0.15556496990521462 -1.2227037675576917 0.18243878424271234
3495 -0.06271675614771373 -0.479192481805783 -0.6954955247941679
3792 -0.6255299543335522 -0.6931442342017515 0.45278347339847613
2370 -0.23678166613479956 0.7500521395795892 1.4169840825549715
171 1.0064292197943785 0.0856569431112219 -1.072330047236026
311 0.2699592970861132 -0.057306406601970526 -0.109967458581728
3670 -0.03914340627258368 1.2517791729211571 0.6292085586184942
2777 -1.2760028677136332 -1.241821024182847 -1.2802909724362048
3546 -0.20328810115907986 -0.6901888696375702 0.773901782129668
2286 0.048235025973452 -0.1950275580529839 -0.77755815943438
2013 0.34121329512237436 -0.2863104289861281 0.2975337939513508
1098 -1.0205499064048706 1.8928982806261052 -1.2149687021768323
1312 0.446090407990072 -0.004878677014173068 0.3768113430896755
3839 -1.8639141381441722 -1.4988434280613248 0.7013638068199372
47 0.45796280506154113 -1.2539187567600962 0.13012774560471152
1633 0.09027639655252614 -1.048994150936204 -2.094592786300257
2572 -0.5984485229350748 -0.1265367461439218 0.07452687094557542
857 0.06024944359380743 0.7863956197282338 -0.8895513714663045
3176 0.9233624586600275 0.5170720382950271 0.4906994976694964
2327 0.7103065553615129 -1.6590092077775467 0.43012700230241735
268 1.2149889929182152 -0.7320387309571893 -1.0898243502747276
2845 -0.6343855197471643 -1.5762327852601887 -0.8432309365438173
3191 -0.40847116884020096 1.1308339269389536 1.54634801859735
1459 -0.07951636473414156 -2.044659852456012 0.2179793451939108
1831 -1.2212951913494607 0.7972970251746566 -0.24556504946040508
2876 -0.35704809153254824 -0.0445524721406715 -0.22860916434127276
1 0.20727012197706232 -1.514911828583196 -0.2974968792523239
3458 -1.8770248742983169 -0.3975969527999694 -1.0548263651818441
2140 -0.16026675720437883 1.0124449008843364 -1.2023778351870527
3851 1.9158302030059418 -1.0779594350654096 2.2994800413491756
2459 0.1632718147571233 -0.17022992910337956 -0.7343458971756273
797 0.18016030800388372 1.2073571567214074 0.5079554558379344
3427 0.5381002252342013 -2.203942513866846 1.284045022960247
1853 0.1621572844820062 0.27031918307715386 -0.5344727624760673
3686 1.0341697026839958 -0.1654335986468431 -0.038167099785666625
505 0.24905290830113888 0.5091801542800538 0.7274132532652895
768 0.06701517053130789 1.0002588840804856 0.17412042860999638
2837 -0.5071786102414801 0.39260255575703473 -0.9314262512819717
3534 0.16850491686440125 -1.3896415294788902 -0.4681708126826494
1482 -1.5790096740482056 1.7234924365088076 0.6032048494926666
1944 0.6332694462898937 1.3319621218300715 0.4232816309237323
3254 0.6428992827843777 0.2800394559062933 0.7477664090818942
37 0.022458550318938886 -0.5476750743013581 0.03392855379474769
224 0.8530440933522051 0.6117620601915007 0.029095915447360177
561 -2.529809604840829 0.46763696781405206 -0.24232324112197096
812 1.0266117867971536 2.286650256423659 0.6740035715178554
2014 -0.23772701072232572 0.3835557488764377 0.8694440824930524
2468 2.0003968088646555 -0.19404210841465527 0.5121512818708779
2884 -2.5631437351347883 0.278656158791501 -0.5443710260326199
3130 -0.5053391376392505 1.6702833405090178 -1.031010025424866
1110 0.8529873051613216 1.9228212545803665 -0.695515684559745
1523 -0.027512745684004403 2.028114951605499 -1.0537577454869809
3401 0.7718878112006753 -0.19247526226732656 -0.032794747892359075
317 0.7652075588698874 0.41707277847766544 0.39295577163699985
1430 1.2978344856081412 1.4905386050136633 0.590535159423122
1419 -0.9051683868275201 1.1169063736116989 -1.4421886808418203
863 0.6131539302582212 -0.38563598713341696 2.3047147681129077
3428 -0.6639391200748008 -0.8656898826909114 -0.5850583365349209
1524 -0.012102826998945467 -0.9330080796826846 0.9846560251857617
2940 -0.32593640558301545 0.3880092317865418 0.27280638116704464
258 -1.1028491452078348 -1.2542703502168953 -1.6811781226977793
1223 -1.9889649986065812 1.1337164133052922 1.4908829985852539
1385 0.24200208686915242 -0.2718980642071605 1.6519535277985655
115 -0.34594458371046155 0.039635238044615335 0.08956024234501181
2132 1.221941099334827 0.13234362933237134 -1.879245993779669
2294 -0.8748008370600397 -0.27884764824345776 -1.1914607454394137
1721 0.6894365008157243 1.2492340940211222 -1.4163857682691119
3891 0.11439969137634393 -1.3188395124816514 2.713825469315317
3094 -0.5564441850546694 -0.5179669376713878 1.015526179657325
3844 -0.11003827847839867 0.014682539431185514 -0.2291585723995535
1908 -1.983773083439167 -0.8977162347685851 0.10450615148706147
3957 -0.5317391421738816 -1.483128909891326 -1.097059842821466
3795 1.1109632607651114 1.2371121859042213 -0.5578899212582454
1357 -1.0946139878018637 -0.3296802549961744 -1.839498439887051
415 2.04423285072664 -0.8072358705162157 -0.3460769832596208
3338 -1.1200532538100698 -0.4965088757161939 1.7146929105627284
648 -0.657363736156991 -0.5433464294161221 0.9069404354640281
468 0.5992036844160279 1.7865768033901632 0.05080152058484567
2646 -1.1863580355259213 1.7628413433952173 -0.5717452297171199
2016 0.14843815725083212 -0.6536627134773345 -0.6771008934968598
3736 0.17919549663606266 1.1696649176544343 -1.84043417608881
1140 0.07154206035316718 -1.5129427303550762 -0.3375632793563781
1534 -0.02453169737233565 2.4197266906106436 0.06854887252765841
1378 -0.4754198217888748 0.9150121674502392 -1.6100188938563063
652 0.4343339820563138 0.10797000845762104 0.8774396374517912
3986 0.3717021103418478 1.1064783710490413 0.405014786913728
1993 1.1532175696418714 1.8165332284292794 1.1374164155553848
986 2.3945813348399394 0.13526819422562994 -0.12070725094333262
3634 -0.5063268488273404 0.5832605188233099 -1.0751738022538224
600 0.38108843434565737 0.20586318519370123 0.6419422357991604
3636 -1.3760252741239196 -0.4142922660897292 -1.0560467901182065
1675 1.335547495848926 -0.9546104799842876 -0.04442204917663313
2058 0.007151826356940151 -0.814856570091892 -0.17166860701993275
2427 0.2211192653251674 -0.459885039380582 -0.5951794778602233
3492 -0.6888623550123831 -0.05674700065113713 -0.6726091249651306
3875 0.8581494068991132 1.2245668980668971 0.6821410105430128
2975 0.8122895968017385 -0.4937452457008302 -0.02811583803968748
2338 0.7365246148672212 -0.7253267532147223 0.2539426243000194
2773 -0.164832473116508 0.10179200242679017 0.4845742897201612
3239 1.2415825243500682 -0.11973925276581873 1.4242083543589623
2801 1.9434002012837825 -0.3873378619875278 0.2968242070274021
3522 -0.632497290204711 0.6663957700752299 0.43229843361601333
1997 1.2828380947657914 -0.3861126800180035 -0.4866475718931073
1914 -0.4601841890973459 -1.0799013244914528 1.5154082018390689
2731 -1.1843637821305546 0.5866354173975863 -0.5903596462740072
3477 -0.7345313952048319 1.066545066105841 -0.3298866321235766
1996 0.4874091378042049 0.8522886030861538 0.6180911749849579
471 -1.4065951569593826 1.6054296541057589 -0.3546609602487998
1929 -1.0300417596953786 0.8661715568710228 0.46257558952901345
41 -1.4634214042481049 -1.9293190028283325 0.33484493584696845
2255 -0.041515898647530546 0.03304439225140208 -0.04461778180629892
1898 1.996386282162578 -0.5033006277801354 1.1088120928054774
1390 -0.6549807593422842 0.37927358976650705 -1.6909038255731204
2832 2.083475270744077 1.466923867100132 -0.32474722517910026
3779 0.34310355077347415 -0.764316553167503 1.0428004272168023
2649 -1.019247406083241 2.1880039288500095 -0.7470229931098763
1951 0.821401239455539 0.5590693924288996 -2.339136145643294
2559 1.1517126725371885 -0.42311688999146435 0.7491237724551159
1670 -0.9707952319231442 2.772563560893281 0.7355424205669396
549 -1.156185809146207 0.3994728378089929 -0.9851953594628916
1480 -0.1635078847104292 1.4955378748584376 -0.6367737185796615
3392 0.23432454156757787 -0.8559004748681796 -0.2590327064492963
1208 -0.4713654466214795 2.4704982627536474 0.23865048833250704
1881 -0.2040627089395744 2.746198566166554 1.093312806043659
2611 -0.6832930698813952 0.24940314266941635 -1.4670118582322023
3217 -0.8268326675922036 -0.36247871217589434 -0.4452872549631259
3290 -0.21844853636814782 -1.9076229753658238 0.6611345888155796
3484 0.20297890278066097 0.22211896392587763 0.19017556590972481
2223 -0.03550932564400902 0.5767630147757461 -1.5209636420883468
3214 -0.827661587870646 0.15442842229144166 -0.3191407468291148
1173 0.6686193263306581 -0.24218534933371805 -1.2054979187225825
2528 0.19484046175569575 1.5268153686163684 0.24812253769656253
2593 1.4412439878083685 -1.6216949818667452 -1.821980300084352
4 -0.1060251629172331 -0.27334898713747474 0.03991977469052136
685 -0.7145053968129549 -0.09976972543758288 -0.2990149435400674
970 0.7719051793840211 -0.22882601401105737 2.184701804849323
3107 -0.4283451923454296 -0.5084200372701009 1.993670375409153
548 1.4310303481789441 1.7569714931849039 0.6760435302954939
366 -1.1990158923751089 0.47996415609760873 0.29393234265924834
2549 -0.15126848204163032 0.6028090202387899 -0.9385343877819503
889 -0.5641585433152778 -0.7341458626128119 0.8623750560926542
2196 -0.0016131230936243801 -0.42395869216331894 -0.21813208607496534
68 1.1463596216546597 0.30355274729779863 1.0648707088687888
1325 -0.12348233740292969 0.14579695018753416 -0.5651992838268352
1033 -1.2559501689596944 0.2581570939058398 0.7387159905122487
953 -0.9627541405022322 1.3993539629984804 -0.07391867983232911
3589 -0.3795859143794881 0.6409525467062555 1.4022414427828376
2849 1.1869836496714998 -0.3714272468422218 1.0961736143984722
2980 0.5444730056313124 2.6381538586533884 -0.10719298045043484
347 2.6091625497941666 -1.4645644294345046 0.21875470015789367
2869 -0.6854388796797636 -0.30495070741625807 -1.5327305927155683
1186 0.6804870558220849 -0.934973168865992 0.5894576249111191
2594 0.19079375159825016 0.22718433699078042 0.9893718461466461
38 -0.006711162292167491 -1.6778803262492665 0.8435247537790164
2825 -1.9250277780063338 0.9467541405987205 0.9786469542737981
2710 -0.8212794246681043 -0.8609799748280664 1.139407593270696
3941 -0.3135419503018572 2.808040473814699 -0.8350033310178164
3790 1.6417510681442002 1.6099902164914306 0.5150557510128866
3129 0.521034372248765 0.16528499050339246 -0.6897924506340544
1785 -0.2274236925601712 0.7413533028644671 0.0018018484767589643
1360 -0.07717649416489257 1.864162408062012 0.4390056592447623
1401 -2.0112900496462487 1.0746837863705077 0.04383797576564706
3132 0.06931893947975418 -1.112757197078181 -0.3120774815659429
3300 -0.09009811367096578 -0.01063500934499637 1.5970735037290371
773 -0.04649020568591033 0.07228006237211287 -0.2532664072883742
353 1.0683485662560026 0.7381818853953969 1.7167373151656025
3424 1.1804759611579105 -0.5400433623046225 -0.6085051156944455
1957 -1.8076197087233459 -1.2615184000473278 -0.13334268186157103
585 0.30105242446089814 -1.8209797555198555 1.9490446539920923
3015 0.8629259866333245 -0.22567280068917397 0.10065661858649387
156 0.15795091149687887 -2.0393764865534414 -0.281216224577876
232 -0.43681535892040346 -0.44317886234912535 0.33557333714760873
1590 -0.2961402869078488 0.3977587961312158 0.5928736599182373
539 -0.33107611777320906 -0.1873021325880518 0.4422450693424322
3897 -0.18287971903476966 -2.0903806228344113 0.9508300484433314
1067 -0.26377430715901956 -0.7851355021389612 0.15767489409225505
1964 1.244683773114043 -0.039533691308774065 -1.3232475652039146
1725 0.9221049755523506 0.04792272933862461 0.04380485895851307
1902 1.001632559252359 -0.6568101759167282 -1.6852140318818154
1764 -0.3255603174184425 1.5073003425152243 0.009763285770951636
2471 -1.8966336826333636 -1.206517760271447 -0.2949942321415227
1287 0.5550694826596714 -1.6098794432760961 0.05987471885494362
1777 0.9775073210768225 -0.6687931486239711 0.4200147200657234
3510 -0.08829487774483413 -0.11327910102218465 -0.17400012660076805
484 0.7662246114643895 0.4514039811137581 0.2891862963995662
1170 -1.0596483596956079 -0.8816030507681113 1.1199603637531297
2078 -0.47155953106977233 1.441172957713767 -1.2807775213593375
517 0.7915618365915119 -1.6739364654532782 0.6927020680086146
2292 -0.704976482219166 0.6188129849935274 1.694547625888993
3933 1.7703022585708383 -0.7191684265090869 1.6909911086166727
1209 -0.27588823083610003 -0.12850523164468852 0.11844814610891062
1555 0.3129763482217588 -0.18018593162575408 -1.9920118206165032
2027 -0.6199988563069291 0.43829914151445337 -0.9561482774676986
3467 0.6672220971558026 -3.4903677599768765 0.01791045665965623
710 -0.17738678241037834 1.0132410599675907 1.5940466978244745
3419 -0.7223295910145755 0.9340206760823511 -0.6443185197171188
1975 0.5339118643090066 -1.036157544120276 -0.5419161313326998
3374 -0.5425376327092145 -2.113872505471086 -0.697988100134955
2702 0.6927864755470787 1.5555646767373463 -0.07642657774927801
3662 -0.5326015677784701 2.445790458632316 -0.0735117128159876
343 -0.7044344650360934 1.2700040537230621 0.03888688194142421
282 0.43017492739936747 0.5727098566901454 0.7642201620390486
2382 -1.080152714717654 0.09776712479176702 0.9358845387337671
3960 0.6689904256410122 -0.8643674862937164 -0.32812290722405896
1103 -0.7934854244346736 0.3573369180889047 -0.3373796765506941
3830 -0.636224573524232 -0.3316206055593716 -0.3877982497371876
925 0.5624841980608197 -0.9897436345064752 1.192641158474131
1900 -1.178463097706859 0.27101375519115606 -1.0529533070183041
2189 0.6402063766386074 1.1485748960926945 0.9019129156268586
72 1.3505941369741001 0.641405800684393 -2.0985090504257164
2049 1.5500002357101375 0.14574171346443643 0.1954235918263622
2116 0.5943723714802972 1.0621917323504901 -0.6817337987953269
2350 0.9579932013658552 -0.49923891999239123 -0.6344621510416076
1683 0.015782878693066278 1.0682090601092982 0.41330182919498754
1132 0.7847306781814325 0.20990832904611156 0.11534423088909375
1195 1.008737845792867 -0.31115646925831575 -1.2725487381788148
1348 -0.7187629431433674 0.09382856860373896 -0.09196148939085476
2535 1.6904750165340432 -0.40772374851115023 0.7545998998178368
642 -0.2155245708529579 -2.4791009227649745 -1.5584245053915482
2788 0.35160506256590324 2.057490013459358 -0.26964502502907106
181 0.6748384083658051 1.707770153669403 1.4757900570745477
1320 1.158543324450379 -0.07715042644377426 1.1494461228126187
3959 -0.4746623818436655 -0.7777796184910883 -0.2049167251724615
3291 -0.7139480433907804 -0.5082545819430034 0.3027012763206122
2489 0.0988868355092146 0.9550872789244981 -1.5949964819533662
911 0.6615896600675415 1.315445643547743 -2.993025928437277
2574 0.012674370550969257 -0.7402801131007604 0.659066332399738
3124 1.0364106633395598 -0.5012955189661553 -0.7118379032162535
3671 0.18626114265466132 -0.5877226995319715 -0.25028223978845215
1742 -1.167825540000835 1.183080938112771 0.26159641944551865
2430 -2.828669270220835 0.8959335666181939 -1.1741306372123936
2462 -0.9010555900444308 -0.7590583652285131 1.105443481352845
32 0.6171933612793729 -1.4300568244342795 -2.1839534912543144
1122 -1.5471974658600645 -0.8207130210417901 -0.2853866998482508
3044 0.8500541619975057 1.6215727961164115 -1.889718974279612
455 0.6575424448619371 1.267510150279909 0.9149834359313357
2386 -0.4686035094287726 -1.1843977357191824 -0.4133118379589909
360 -0.34039555252878057 -2.3979798602489706 -0.2719182331594885
3450 1.1666754605566783 -1.6916189657769378 -2.3001094149344303
2608 1.6545059724134428 -0.259042609795708 0.3340797101525139
1471 1.9339477313211628 1.1011710497877019 -1.4409379702543628
3903 0.24466885848983638 -0.18664076080976943 -0.4937523766105438
719 -1.2103019384346725 -0.09776079979848246 -0.29660229854486164
2959 -1.1441671748516655 -0.39032829700223376 -0.7624900306298922
1347 0.6947039434343011 -0.24595977332639862 1.3444917774177336
2285 -0.4591480271615926 -0.2289669973830388 1.376000265430383
1803 -0.8765553410273367 0.9056245707573175 1.9584261970933952
2359 -1.0276893605724324 -1.2167192379974061 0.4936720951681144
1552 1.9999479290898943 -1.2317406631424865 0.43720904048215814
969 -0.1531013567308227 -1.4634900557390582 1.2865989036061363
1868 0.2022908014680603 -0.6724696152786296 2.5023740824845317
2460 -0.4628448001303681 0.1596705249667906 -0.4341137746186943
2848 0.2064468921948537 1.5679284241037497 0.16640787274784893
2051 1.6167362278850608 0.03672717162267429 0.39834398986011765
2031 1.110993731588935 -0.10508700956328805 0.3218332084896504
2067 0.18962518225068786 1.2227808248143872 -1.2426921542437819
2834 0.46417888195031354 -0.7242096105077995 1.3908533212010692
3786 1.1492695818487701 -1.3864447243473683 0.019163065106389137
1678 0.7246818219010205 -0.5476429148337936 1.5409448874774316
824 0.2971895241195864 1.4322005628566674 -0.43883242739490297
1920 -0.518934879933015 -0.6328918058257523 -0.17317041958284307
3436 -1.3488895908802587 -0.29665081256329723 -2.3977728835913084
3526 0.88882695967573 -0.9957016505832573 -0.12555959919407872
1808 -0.46691841707378706 0.3078876337087702 1.7499086372116008
3950 -0.11307378265427204 0.6660254268713339 0.10885664167997192
977 1.1027052542950497 1.505901248667121 -0.6355978177474774
3730 -0.5954155037434394 -0.006629843343834469 0.1502251325632194
1917 0.5979660528923203 -2.327031222597387 0.382589738499248
1587 -0.08324179688206462 -0.003146880554368496 -0.6210597377118489
144 1.009388354004263 0.0300615316381839 -0.48324282850614775
2968 -0.6916859667229216 0.5413500789456847 0.949155419300291
149 0.5013902217491841 -1.3987974596437713 0.4823663615999782
2284 -0.9536080218603027 -1.6163622146566277 -0.16268075368656917
1176 -3.1021047041815795 1.3629986885904046 -0.34073364607587003
469 0.27323187718598924 -1.6106939080424725 -1.7526659220408547
1877 -2.3530173578230285 1.3995655599723795 -1.0079725541293092
588 -0.10080615703468597 -2.2674644520538827 0.583540824915562
2524 1.8228644905470412 1.0412645563449883 2.005465582719424
1904 0.43477288435307987 -0.06415678547763286 -0.8038005868770168
3977 -0.17105999657902127 0.7130422735137514 0.8766112947058238
1477 1.742093722000452 0.045526100715293366 -0.4766775141096489
3740 0.433222136018063 -0.995544959513963 0.7146061093400375
1927 0.7879111201026214 -0.9182009673621402 0.0029633940933681733
205 0.18391191889487232 0.3334122842199263 0.9156283222469722
2715 0.9452682393738013 0.970145533986897 0.5562189850374468
1448 -0.3699367088386661 2.349034578294625 -0.6986262697869291
1039 -0.8113196511512516 -1.1940736072439577 -0.04909140591249138
396 1.6016599362264747 -0.5809437152823616 2.1742619856040566
188 1.1776877598111508 -1.4372837262468512 -0.3980274056030491
690 -0.5673338311523541 0.18553259768851665 -1.6868011630808213
1023 -0.06488348868181795 -0.6694546989582639 -0.642164577912215
3043 -0.14594944557477582 1.0156115431033679 -0.31688639993361284
2401 -0.44275753526458744 -0.32870063105486313 0.03745289135951708
1321 -0.6295719784509816 -1.2659483534084304 -1.1683432615769387
796 0.8384967152612849 0.25500603939178573 -2.129339472062511
2421 -0.23223107302894044 0.6958125747036987 1.9923389927486057
1636 0.4851189945435706 -0.3638076798198088 -0.3260099754328903
613 -0.7853001192258362 0.8144643962474495 1.770661377303028
1059 -1.5553296026572048 -0.1203890993095605 -1.3305296536321194
3838 0.7484784269160224 0.6663315070991975 -0.3140624561986976
2776 -1.8626751938790136 0.3950682754117917 1.081290873058382
1450 0.696406297494069 -2.122047665438449 0.25564246334182034
1894 -0.1853297786047031 0.3679310835135874 2.0325217037886345
2651 -0.19759095879104 -0.743485508215752 -0.012149196271689026
2744 1.4083847687940274 -0.8803593101712671 0.6744739781206978
173 0.16705091529109678 0.11691076414087465 -0.41824760928291366
1314 -1.3546593172391117 -1.1805177494768517 -0.8281986076133461
2586 1.497716957452406 0.4326575945643093 1.533646457884573
1694 -0.2518011008634788 0.30865969945333693 -0.780789222369364
1298 -1.0288056172255768 -0.3049988329268132 1.263148895658992
2863 -0.7482323654271046 -0.2238149425432393 0.8710113421182102
124 -0.03195596304012921 -0.46559994026387647 0.230688442604576
3394 -0.4238074898444741 -1.2462191087822776 -0.6492101547913103
2803 1.6986824557999727 -1.029936402389434 -0.25923278466706035
2159 1.2174688228267965 -0.041665305963395 0.5203927149980246
3430 -2.836310960985 -1.2223889440144515 1.7056246707077725
462 -0.19878500615439337 0.6461637192124836 -2.346261200084969
2633 -0.14634130384162522 -0.5794943682186454 0.3284010180006399
1386 -1.587296253794391 1.4024747326515938 1.4704476910838964
2144 -0.6526637747707612 -1.6110122451838929 1.799074746666679
2920 -0.2939582984671519 -0.7166685497416344 0.2711523526045316
3538 1.2423093251877824 -0.42667037856768314 1.4709710570423644
2018 -0.3833279249589829 -0.32642731426161503 -0.5185348969682316
2599 -0.3531491752952823 -0.2516341390421575 -1.8991150070026503
2504 1.848098757599735 -1.7056340178569913 1.0565217483105511
1394 -0.8213638718337474 -0.7416692550938804 -1.3898959422984785
744 0.5902152812601871 -0.7291112340925788 1.2143691815057016
1112 1.2051374772862162 -0.22206226179567654 -2.0986927817478986
3542 -2.2110243650247106 -0.2978828584970635 0.10733177607347313
3410 -0.021870628749594605 1.0382815563105054 -0.49404651065152005
2080 -0.8699897838566728 0.2784427051411616 -0.7293946703918199
3604 -0.5204131447191904 0.07809252620865083 -1.3105087477988129
1730 -0.6707691687653277 2.0690776919006315 -1.205430869031917
1030 0.2640315179340337 -0.0815057329116597 -1.2536442691885166
3104 0.5063380643497033 1.900139208396677 -0.6884723348371188
892 -0.34680950312320086 0.01726724825876705 -1.191757060227377
2315 -0.03186234593793644 2.488057296661441 1.2005137559231274
3 0.26062442366161126 0.5152931785882527 -0.3859916522623428
2643 -0.2539173862453909 -0.6171830588158755 0.48821141902638765
1484 -1.2731566885471066 1.0125761698605544 0.7080843460936295
2979 -0.543252697341221 -0.23618545861762627 1.5794309091771233
2657 0.8172371622028753 -1.0790741893818547 0.48458197635815886
1550 -0.12199305652155053 -0.16600478756922907 1.1771630855974125
3210 -0.9330355785050156 -0.7855455700879156 -1.3819086053578844
2750 -1.369729461762802 -1.1586809380029233 -1.0700370493085147
3491 -0.9030827794160224 -0.3720555512089034 1.1704700823712113
568 -1.7080239314712913 0.642515996501571 0.2842375916616781
1543 0.3886519692042776 -0.5851380458807162 -0.48272220165972196
2317 1.7675577777149571 -0.24878675691623553 -0.04831600922601453
3854 -0.09912051554647473 -1.2696216464313999 -0.3872178554922505
2757 -2.04315393032927 0.8939115069482567 0.5118270057446639
3077 0.8391677040753136 0.3128973557809306 0.2464833690680099
1054 -1.5407663429095277 -1.1291450756016888 0.11246822594115595
1074 0.1858069874879758 1.7555304153807023 -0.8787830970195126
3823 -0.46898846383931203 -0.31340618799848824 -1.8257595448707324
1500 1.0771652663667564 0.5743186341711324 -0.23410511278362045
2754 -0.5359338484708001 -1.511144360583543 -0.5218625762556575
1790 0.29043319883675955 0.5095241649588065 0.18482974994094206
3406 0.8385678167807178 -2.5488614236195084 1.402121169947151
3400 0.36136757472618297 1.5352693828492288 -1.1837901009370866
25 0.11642315902649823 -1.446864629428318 -0.09476053651630476
236 -0.608498261109682 -0.5286321111257591 -0.2578134393749024
71 -1.2858455738900745 0.7947862980121214 -0.22134753466840093
3966 0.06319037747018957 0.9429841589389394 -1.1188560390942075
2798 -0.6767102897543427 -0.9406985952125694 0.746011744253794
2323 1.1833432692895525 -0.2863769383670604 0.4299461564716826
326 0.8739056876045986 -2.0251145115666227 0.47080262572629783
1781 0.5320711648396947 -0.6981073926073608 1.064376566625803
3949 -0.5386800406744009 -1.2744974775636317 -0.2134832215132287
3701 1.6813762454889456 -2.345550646077675 -0.3799884822440665
765 0.36767360284011685 -0.2558152271278974 -1.8227161563363152
2106 0.7866032427746483 1.0607165385380755 0.0014005972333841327
3405 0.6549666418542736 0.6827741648054051 -1.87483071290589
2596 0.180400007135364 1.615049453039249 0.7802909557867136
1315 0.004094107299545046 0.6717390820774304 -0.20266971635927414
1597 0.06480460512470154 -1.4246033019217843 0.4239934376828941
10 0.8276471935167825 0.12835323485535965 1.536453131380958
3982 0.8081154242681 -0.06115743593388801 -0.5879379340296874
3553 -0.8333282930181743 -0.15238091516072985 -0.1779635770277635
956 -0.4544189283176549 -0.33320875017379875 0.5518558627474449
2721 -0.9833333499694634 -0.22751726521020824 0.4449458998235845
1518 0.0784447076831037 -2.159839833928299 1.1063216364984563
1071 0.9005901964100146 -0.06346826237119504 -0.1556610399818701
3035 -0.06960706994100307 0.9980339856161718 0.008764811622511024
3320 0.35653081662071934 -0.91925376636763 0.059484027397870586
660 -1.1888146686590513 -1.2207657869841277 0.5180649285461941
194 -0.5628443568148445 -1.267592052331856 0.22104662866550667
2852 -1.0239021239383679 1.0719947297776873 2.019284445344347
1261 -0.6720809596446072 1.0785058375565795 -2.1122195406769713
3283 0.2997697674017008 -0.6117394794542029 -0.41843027943055006
3244 2.392131792528078 1.2324687485361259 0.22000991203076753
382 -2.530196393562601 -0.48311615327243873 0.6260296130708166
3482 0.3077379475313509 0.9280977936275822 0.18237621116366975
1244 -1.0381569432722466 1.351588992653367 -1.25409030761758
2981 0.7411358508545285 0.8697542878586537 -0.2038751616912983
991 1.5742948001014634 -0.14724722617374536 2.3170554748278467
2765 -2.323653521793287 -0.8930258025162615 -0.7639789126302213
720 0.7093358298849592 -0.4907050237677655 0.7110147361083332
1277 1.0101216528727217 0.42688115698321083 1.0049434996694484
1081 -0.23492297026439501 2.2173729634003547 -0.9930801697797333
3762 -0.12202784951978438 0.28380521830489297 1.2153119803854449
836 1.887358283237523 -0.6567610389544972 -1.5941327414241748
272 -0.5070482818024115 -1.1710090375904738 -0.6983721683105508
1388 -1.7699918782977717 0.9759575245805552 0.2323813211227496
253 1.1476098997236603 0.196924299192665 0.7666306023541898
3452 0.1159209147862803 -0.1871096208622513 -0.16254071130525705
1487 -1.4961144301973222 0.08138863115958588 0.3028832625704418
2740 -0.3123797150837846 -0.039564756830588514 -1.029581509773788
329 -0.2624847889613481 1.0511600317899243 -0.6299426608018133
2534 2.7319878845486847 0.2124585867311344 -1.4459006940839438
2464 0.45653338751416345 0.3956974085675903 0.5520905296653353
979 -0.6218376013912688 -0.2694672176497801 0.8619266493422986
3360 -0.7342809840432816 -0.5006501155041136 0.509675573414154
459 -0.5249307674884748 -1.2379535807455941 -1.7092749110855183
2387 -1.1419844977009204 -0.5829331303590516 2.0618561782912033
2454 -0.08014359436684416 0.22521113716394714 -1.1619450175835428
1042 1.4084733922366406 -1.620574333459301 -0.934611551474232
3242 0.08490697801058539 -0.7982759482754375 -1.6128475375360891
3702 0.8343777235020271 -0.19004054129013348 -0.42454953043702925
3361 1.4757391187700521 0.6644423794459662 1.0793171824532293
657 -1.3878182943911352 0.7413452076974316 0.6096230870496044
3128 -0.17816842357236676 0.322801173814817 0.7849740817562684
2469 0.5940528956549355 0.8288379631845341 -0.46806875674758625
461 -0.4258510813935865 -0.3290672675125777 -0.8161239919568285
779 -0.006897722361130402 0.20613164219661104 1.4625778420536815
1166 0.1922043649049554 -0.18464147336796932 -0.7117655613754891
3815 0.2841445152038897 0.6006278527879638 0.041294033079003416
2947 -1.42242049582729 1.108795735155207 1.6609440016915318
888 -0.021907199930366585 -0.8838779623101054 -0.5623359284146505
687 0.7738438147598382 0.740570682932252 -1.1564645644056484
257 -0.004662278080419191 -0.4060221664172361 -0.5072049298866879
3240 -0.3171274830829653 1.009494136268022 -0.06430709486431581
3704 -1.55578183676191 2.719235660540167 0.40419047514819645
3335 0.22126999405486222 -0.646135181185906 -0.43430597508824603
59 0.8931321333479674 -0.13049553430037888 -1.3944758244344353
3261 0.3258538943276662 0.6212089832670069 0.2559106167289343
2622 -1.5926376360455348 1.4096565280590247 1.3037597745268539
3500 -0.2951833169727963 1.564375059972297 0.24697280507226232
3753 0.7780347810583942 -0.36095694391740796 0.3066009980418262
1289 0.4927251474787152 0.7464359965130248 0.743649086568181
3327 1.7466212582336489 0.7026430972755109 -0.27045322775388675
3529 -0.5720050911026583 0.9165281029757321 0.9949543937318499
421 1.4372680217780334 -0.5378085991266414 -0.9025224868138866
1893 -0.8008761376790864 1.179196068836508 0.9058290775007272
3593 0.07309299900245948 1.4107344900185215 1.5198131293530426
3892 0.5018602678331685 -0.181792798567338 -0.9140278106988928
1421 0.6939958301099716 0.39276185635557753 -2.2903635034654464
982 0.01503049945426568 -0.41081943046365804 -1.3015406708261754
3777 0.6594041042292624 0.0719895682610649 -1.317084949031555
3773 -1.2976897104737881 2.1898517759552503 -1.5900069465204036
2154 -1.2721210512110537 -0.8369880386694345 -0.2447186459004453
2191 0.4891322140220377 -0.9368611573676104 2.539182929608207
740 0.006902777379476695 -2.079131470546636 -0.2752003060199991
3543 -0.6138305987109546 -0.8025460410036983 1.4948755319258216
767 -0.7740855176202622 0.767537333670389 1.2865815153949032
899 0.6093376795178902 -0.8846637104709902 -1.1916934557571637
284 1.0591481138104506 -0.39205307457275756 -0.28583341488147257
854 -2.3510703620449314 -0.5689266138075515 -1.3080267668740853
898 1.3347912264258397 -0.2937983870181726 -0.23043882499979285
874 -1.1460499695458213 2.427566817521776 1.7885003185008643
1736 -0.028473287848183693 -0.0005543604886170946 -0.3923329846132966
760 0.7668972521174326 -1.7487161109044012 0.7538343839658149
3879 0.8716556335036275 -1.515799359997577 -1.0963368228971557
185 1.0031509699536147 -1.574214096343354 1.1259851834671322
2501 -0.07681898185094033 -0.9946961153499547 -0.21537351250126857
3460 1.4959057675551457 0.1755223689798581 2.1025707549433768
2513 -0.7581424383591933 -1.2732118000302521 -0.26502721163789283
2136 -0.9043109012662844 0.9764458670814874 -1.033665416358914
581 0.8571413390655428 -1.4749909691393224 0.9683678585685367
1638 0.8023806577108447 1.979717253868558 1.0680904242913645
3481 -0.4881259771645174 1.3839772920321745 1.117363762968134
1021 -0.04341592335312241 -0.6257657839852842 -0.8892469225760434
2683 -0.3534505325854241 -0.2241964117778432 0.1559262376752549
2157 0.07033491478244176 0.7871285444718222 -0.07739620208603598
565 -0.025929170833035215 -0.49037209569059853 -0.9551982277906174
2376 -1.0899087479592895 -0.3722845544104371 0.15869744888152038
2046 -0.21283872867682768 -1.082700766772751 1.2024920939993164
3987 0.7314080589485219 -1.0535194838832977 1.5869078479926917
179 1.3200589450249518 -1.4176611062492734 -0.3241244781397367
2859 0.08864608394667299 -1.114218235416588 0.9307206725689413
3413 -0.5233868716286605 -1.6164979544224238 0.4890351014161349
882 -0.12213271944687827 -1.0616994839801408 -0.18490661169313746
1706 -0.4527551673764044 0.2703368812979106 1.062177610314592
1306 -1.237191641831961 0.47276835670167944 -1.3662929498877068
3009 -0.017597887693108268 0.2110762629473453 0.6740865257074294
1743 -0.954588329899298 -0.8040740796263623 -0.042873157583358856
3646 -0.7699318181169655 0.6810213203804084 -2.0991232868075738
3371 0.5237259486881284 -0.1631666471837156 0.9536099729371447
872 1.1904439644400324 -0.6481109848085086 -0.6406679488971956
255 -0.492838994767782 -1.0615811079213096 -0.9682466611813901
2799 0.6305061364935094 0.46054636221929485 -0.7675359680540694
3164 -0.25831562514742845 -1.0712132727044157 -0.10586829152788761
2636 -0.3336959250695774 -0.33169906629426793 1.1551605884824852
1405 0.4227398213955338 -1.5533166693513818 0.01543480200638797
3509 -0.11270389013595837 -0.29159949641040245 -0.05567578077874902
1799 -0.3766405805774957 -0.980897338459382 0.6546203535826636
3333 0.7034864585634371 0.5017749815962073 1.962374779781988
3357 0.2650493647369667 0.9479776212187156 0.3492136823354037
3383 -1.3806507892544062 1.1407308941574783 -0.3527391015383792
14 0.5755983327005962 -1.2838811350936168 0.4216259134247569
2918 -0.4818724961798527 0.9030768775593869 -0.021496356182441265
2705 -0.9878551778284115 0.03369870111820102 1.4228929053399426
3757 0.9391020164011609 -0.9387161486313873 -0.220743180837272
693 -0.9303309111678221 -0.43485020408626623 0.20959116989036333
3024 -0.9941386796745063 0.09178430351420128 0.5999905802258007
3715 0.009911501866155723 -1.8242971499931764 0.5457260637432964
1161 -0.7666246810521483 1.3657253111028818 0.07997387734675761
2103 0.027238088447053988 -0.4847362685370621 0.464491071016328
2598 2.180031036374605 -0.7302740531824061 -0.48362202831393486
2098 -0.22995718866320908 0.9279545003175579 1.2676574681877226
371 -0.27173773389790123 1.3834732322372465 1.3519803367199599
3322 0.6697398865019418 0.23134485524664636 -0.5970361504920914
2671 -2.1197815297250244 1.6038909913061294 -0.9635235908161256
250 -0.7880292437375076 0.8190983778540147 -0.15294713527139087
1959 -2.518413135686812 -0.6929948682433206 2.581894032339761
3270 0.9717734707439394 -0.28701515661887617 0.5086412248789549
234 -0.24571813532156783 2.3774092306884653 1.011730100145357
147 1.488535160679939 0.3770364843241045 -0.35743189359578553
1827 -0.7222619300408483 -0.5501913223452373 0.19206824245131368
2935 0.7171850913648007 1.3199504683679926 -0.9154322081511067
365 -0.3117490311244147 0.7225048035427251 0.5358497553870223
3227 -0.8804566764713209 -0.10389622961034882 0.965523618393793
919 1.2592972547276375 0.4746249342855721 -1.7677135351258408
1012 0.48486950141071733 0.3733692380036391 -1.6130612808107117
7 -0.9842493375766387 -1.0012584947082037 3.1988369820866627
2075 -1.0028649177359712 0.007998650131348383 0.21726675416215138
2017 0.0049954611805180784 0.13851127801865776 0.41629131735589003
2434 0.40769172693511496 -0.6784616897959396 0.5151342113255123
3075 1.0513551330483246 -0.2700967514792471 0.9287915681177581
819 -1.6849204122741541 0.2498944465795877 -1.3223196934997365
3339 -0.06578580713108023 0.04275343061636823 -1.71937833413383
2282 0.03145020550089594 -0.29832922593305233 -1.1215559861193225
762 -0.9326174460281811 0.9094712285694029 0.02749093103517419
1762 1.2738400443194562 0.1755353569131535 0.6872536940032937
512 2.5581798925978534 -0.15181399527486772 0.6613930900117109
2082 -0.23512964030477523 1.1070855129232404 0.7615866636774662
1266 0.020319872815198592 -1.4155684994922613 1.1562711617366286
443 0.1691304621087305 -1.4658330380203046 -1.1752653486609657
1338 0.3089062664300653 -0.6637522083933864 0.9093095747621899
1313 0.26723828014126216 1.3101310442486782 -0.7894988179724899
733 -0.009825680186681174 0.8815627136664059 1.688950774287525
2055 1.0275418334715034 0.6245747349904913 0.12261882802607907
2304 0.31882469805614605 -1.1795214883733889 -1.1314215646492045
3501 -0.21852812299907157 0.0782866982828523 0.06553653395226636
1718 0.2857365016615878 -1.9449209441178943 1.9603863630674103
799 -2.5453723944382305 -0.5489512574176549 -0.6939869354374071
1436 0.01870980285851863 1.944904801096687 0.7386328966831323
1433 -1.2261587535950933 2.5448178799271517 -0.8146665378382213
983 1.4089513054223548 0.41426744472489874 0.8671051493994523
1584 -0.9916968520699329 0.22084519436089056 -0.7940259953181927
2275 0.36154249780670544 1.1916882215046423 1.4501243407287987
3028 -0.3731909886842773 -0.6096959142445142 -0.5939011751696006
2871 -0.05195667826862923 -0.05351056016948807 0.9226142941592742
2312 1.686011883327176 0.05052996761506924 0.007143126360307793
166 0.1634037119536001 -0.671030854719495 -0.29867796205614017
2271 0.7991532522897542 1.13666080877504 0.7769863758023942
1501 1.7637205077893061 -0.8462901946240745 0.6742968829457087
167 0.769307787012252 -0.2796693719045952 -0.15079516563186499
939 -1.0665435521517352 0.6970967433080437 0.6719219293411525
3835 1.0753132525215525 0.05489490819591779 -0.0926826092597068
2738 3.3380464719474907 0.26697535981122417 -0.047767460857579574
3544 -0.2590143221899708 1.6167090968413371 -1.25429156899438
2897 -1.489731392210448 -0.7417971379193316 1.6011164387680323
1953 -0.6897198135182708 0.12404716679285707 -0.5701135647268114
2695 0.3139494364825006 0.5110413118186379 1.1199589348356689
3345 -0.837130761202146 0.020399996676796855 1.130143787020498
1439 0.740049315831672 0.20202463926463018 1.1307642239722968
2602 -1.0804208215917572 -0.22420141562951781 1.3109421392102376
1583 -0.1357793116506584 0.35436590383650424 0.45767452647230644
3805 -0.18240483713477343 -0.2085368220612082 1.536156148401752
1708 -1.0867161559715455 -1.1935866653369613 0.6611799591527112
1656 0.6536247224626289 -0.06643897005167376 -0.0053567781826864445
2233 -1.6470471492779217 0.004796635915680263 1.4665302283825765
1506 -0.9730737058856846 0.5925260145360087 0.0019592171533712598
2778 0.6946589593181316 -2.69889086668566 0.3904710439593864
1655 -0.3403246110617462 -0.2546659723455113 3.360249852246902
3601 0.22260711884487877 0.27984499090162 2.0986406799427844
3641 1.476610170897604 0.3840549028954095 0.5199451333544811
2813 -2.613691745435349 -0.9532186165936837 -0.0344359953423254
3408 -0.33626857420027717 1.4539585079072181 0.26159948220929047
252 1.3726928709983184 -0.2567572601900534 -0.430382619509657
1438 1.846460030728314 1.6199784406420714 -0.7872606474191796
742 1.2846964844578779 1.301708050720329 -1.0742607152513608
1079 0.021390891358624767 0.34289718262983065 -0.2045743567720103
1187 -1.04484321696994 -0.4856005340356621 0.9786267449568183
2448 1.6218493120342539 1.5091487079424115 -0.4076106612824285
3971 -0.1302448731231668 0.9449390098086471 -0.21647169477441602
809 -0.9493327991715245 0.040965923974188086 0.2977825057180959
3286 -1.9536582029944038 0.07100623876206388 0.6050178380620675
1403 -0.3801699465626617 1.2069919755366885 0.3273285431494421
3873 -2.279700002754844 0.26545993450941335 0.5408846263199503
3372 0.14342072184809018 -1.7415384525334217 0.20546096592668311
1203 -0.7262339535559907 -0.49075479571422936 -0.4982626189427884
3219 -0.12442420767227985 0.5337861824717286 0.6560767723354662
3586 -0.9101118311628812 -0.27380939948276306 0.3419664132719305
2964 0.9833544579882342 -2.3571760466263654 -1.2440686876975666
1958 1.3479028441892411 -0.5476801027140564 0.6965571523980418
3532 -2.03338398633946 0.034721564109559025 -0.31802437238085246
407 -0.5625052795675127 -0.7606392139180562 -0.6303244898157236
2814 -2.833595986657272 -0.8425414289831747 -1.537823730715579
3726 -0.16544109854088593 0.9017718562746736 -0.029377285686669315
3490 -0.7793226393753112 1.0181766486301784 -0.6776699997627004
2904 -0.4264893938357411 -0.4071827662694549 -1.9866487759511577
3961 2.1645549106888073 1.2934049332693152 0.6233155482162325
3115 0.09417467059875856 0.024192595324852247 1.1257467768645053
1428 1.353367964187094 -1.5783519942508697 -1.0846647094399657
2238 0.23987694346423455 0.5245540291058038 -1.0712429052517793
3902 1.1832013746487022 0.42383707033931356 -0.10731170698327527
699 -0.7615975424679309 -0.6690230412652446 -1.5601566859670988
3310 -0.41762169630773394 1.1633434130374678 2.0156870423502236
1766 0.6222149127495964 0.7293286928325136 0.8897669198773255
3237 -2.0519026624057664 0.4123908310406894 -0.15043155877087988
1935 0.19978332035256996 0.6964192811740862 0.20801835395084162
3149 -0.23169561782929857 0.00397534803692392 -1.1844077284493917
3797 0.6714585242971739 -0.8958943941074528 1.490104907480412
2821 -0.5938134072513224 0.8379202090072745 0.17883963880181428
2974 -1.525795730914856 -0.5033167962017296 1.8276901602708142
3465 0.9077021425792048 -1.9821192602002249 0.09330598923986805
1507 -0.8295836302830706 -0.07553358380659858 -0.42479364223874855
3711 1.2210744098978676 -0.4418475691719809 0.2779584898945666
3609 -0.15092789405390802 -0.4845700005268195 -0.2728912224624798
1418 1.1844963830148185 0.8084365342860612 -0.40188586825179173
3125 1.2748130592600715 0.18547811196122482 0.6405990474498324
3426 0.47760716058497343 0.27236651942642826 0.7025717520726376
1665 0.2063277603315243 -0.826533563357134 0.01677498326152887
3541 0.32162949580557676 0.57359564727189 1.0233367509824711
3437 -1.2988306428925827 -0.5707803230787554 -0.5216907039620936
2115 0.4513816516814848 0.0983703051303981 1.4761567667768556
3262 -1.2717667782608173 0.4286851893532766 0.06419828527670185
90 -0.6788879223282993 -0.6114878690727291 -0.8499689127252538
458 -0.34579845252351266 0.374718653424312 1.7202590244340048
2331 1.5270099874902712 0.7519285600129685 1.1456727736124874
474 0.7166462257842674 0.39383171002672684 -0.08514914574148279
1629 0.5244795693360665 -0.07375174779818379 0.3749233320631755
96 0.09684893804408817 -0.8919562020045567 -0.7858022768931565
1150 1.413944409308103 -1.00027418936954 -1.0289012173106968
1038 -0.14467119902237877 -0.4951315741590093 -0.8119900783123783
2109 -1.0469951966586086 -0.5655590712037417 -0.12527709806773119
3992 -0.23829501461913688 0.12180499417707974 -0.32537543096280636
334 0.8161045609562472 -0.19552915072907445 -0.06018083563893196
2221 0.5831365663809076 1.682221759313882 -1.0618418998118977
2431 0.193180121623301 0.3370849224726606 0.6112286709204094
3913 0.786946317013265 -1.545165688489443 0.24816235559146468
2752 -0.7671693665699283 -1.6832010052830733 1.0837709518122338
3059 -0.1021218417765691 -1.3740213718539913 0.45329827521928867
1417 0.054721863256588836 -1.3376043168856897 2.0104846168460386
821 -0.4281332915343583 -0.2792217898351727 -1.4298779981978318
265 -0.43041329784062865 0.7998548435920764 -0.35874388086923426
1905 -2.024737522734014 -0.8120964391663069 -2.3873225187857963
1495 -0.9869550853887905 -0.8316052247933622 0.7893787793033982
3536 1.223010533127877 1.3538461625034812 0.1854040170489024
1841 1.3497874097395586 1.1924938373708147 -1.0091997863364648
18 2.93723465893403 -0.5826509595951394 0.06326291190160697
2542 -0.051672026716824845 -2.0250917660822716 -0.7562323444068442
3265 0.1250951982053619 -0.8222843235047413 -0.22617422477294905
3141 0.7931983132852898 0.9435673526954745 0.4721048030132494
203 0.7110936977284913 -1.4968562832121985 1.046902427184385
1037 -0.10207554023251468 0.7822920996186246 0.5142786772129082
1564 0.6356399121829422 -1.0343019665284903 -0.23090354279735786
2482 -0.13968246720995048 0.8832980931936104 -1.064413078647939
739 0.7168699116819931 0.7852635132026013 -0.08774033113664756
157 -0.3118530266475449 -1.2818360446263664 -0.6928526212505789
269 0.7720909077178107 0.04152598993436514 0.2687522476728445
3548 0.42522726577029096 -0.9649969325272885 -1.1423414965104493
1674 0.3901491743343364 -0.07014111368872687 -0.2677498147283862
2419 0.43705064058436427 1.711910130202155 -1.0494066897343912
1966 1.948163234646166 0.6992132371690276 -0.55911333040067
912 1.5017411666048985 1.3155054897575178 -1.1708568342978953
1013 -1.1702149111161106 1.1849458378772701 0.7476691863450361
1311 -0.7947031194154478 -1.7198068713035213 -1.7789705999583179
2698 -0.21071776824815866 -0.7424394945218501 0.0942972288239236
3471 0.3982634284929731 -2.3184540649960645 -0.934136115634603
3936 -0.8625398385405009 -0.32082844661777915 1.546175144260406
3466 0.16726572186286418 1.5223999055693362 -0.6834711219324062
1078 -0.5204984746556148 0.5026387443840192 -0.4879785425658831
831 -0.3986060300725305 1.9303458451556712 -1.9140052700748775
2930 0.2621748710091486 -1.8653204857137813 -0.3890226055222015
3324 -2.945580833731987 0.8699757587577526 -0.35325207294106886
43 1.6978042681168848 1.1597731093977384 1.346669054936904
436 0.916502258418246 -0.15073430569245627 0.6081803142302605
3561 -0.15456708207160239 -0.6363291087741128 -0.5378186613314616
1099 1.0214550632150179 1.3230506333769687 0.06712249433653807
2502 2.0768616685852317 -0.808373615156873 -0.9607861547507484
2000 -1.5147123447823683 -1.7844577610253356 -0.04060949914986088
868 0.3281056326026975 0.4861105726988116 0.7234456638178659
1293 1.0721323294355507 0.6141793041907904 0.7740039221859802
2400 -0.2138696041372483 1.3726578360299186 -0.17080409372771316
869 -1.1502453870121723 -0.1708612167382306 1.4272985670932319
2119 -1.8788930799767483 1.1534265635322252 1.2882943405114022
1259 -1.0173109234228188 -1.275901619015033 1.375178066530633
3817 -0.582056951617479 0.5566779900705234 -0.3486161611484117
2635 -0.25344023490637224 -0.1730676715167012 -1.3346452659906114
3630 -1.027953012222477 0.12866512380429768 1.477069931538398
2053 -0.38780641195431653 -0.10844570689188654 0.06523645951718847
2198 2.977739421674808 1.7806790275118074 -0.6662061460421169
672 0.6040839285022185 2.953741812006356 1.2524151974069735
2272 -1.399883054390054 -2.5946126189762864 0.6938788382096988
1093 0.6288056939893145 -0.4541244583749371 2.679504393311312
3813 -0.22214775891519292 1.0625444423773294 1.7267757941230728
1811 0.806968728826988 0.4434805776902306 -0.6156710121632256
1180 -1.4275625045578173 -0.7731949195896428 -0.3056724319323759
3535 1.4847584638661937 0.703355199484865 0.3604300454448784
3571 0.45746021111975066 -0.9541156214999161 0.7012873221917789
3707 -0.6983989216025206 -0.16909646651267707 -1.0016561246268196
3724 -0.039370518263363234 0.3615460180671856 0.6893140797603242
1676 0.4596091890921884 1.370844592370733 -0.8720508370505088
2997 0.7104882656043285 -1.063912382389591 0.4704252392635391
2946 1.2660597022061963 0.417729250660283 0.1788571682423606
1982 0.17096679027312398 -0.5078961880867466 0.5672822535266064
2992 -0.34846509887171856 0.593766000484873 0.13304481828088494
420 0.44388801456319615 -1.2528222834079052 0.4784272584382613
1627 1.5638738663777332 -0.5272894279429428 -1.369544978728497
3618 -0.5042278300861287 0.006924073915642098 1.4241988518534676
1728 0.558719080458771 -0.6447802515346756 -0.9459164008270992
915 -0.5481771237283795 -0.24677632854357193 -0.4482417276142423
3552 -0.7561150921432864 0.6812209758239853 -0.07440328040260018
2694 1.0130628987834582 1.166295958923617 -0.053762456618311485
55 0.44150013006219535 -1.1143364892403338 0.16644127928404756
3100 -1.4592813414723922 0.4893750273479378 -0.9836032735432249
2368 0.5982758819761015 -1.482144288218761 -0.6073315880860048
2381 -1.1327362292631997 -0.3163279076937303 -0.4725082890417612
3816 0.05603249153825323 -0.403527489575507 -0.6341457727820303
2463 0.3443128437655663 -0.03983829076343046 -0.3500999842637037
464 1.1200814638189402 -0.7449517168753856 1.3756828976414484
2297 -0.4785040640533327 0.1664518001192622 0.01830695055514325
168 -1.1302441178546978 -0.7185854652371501 -1.0446429811273923
91 1.6241276625679466 1.2679774004954267 1.063533342349108
2618 0.7692846698667972 -0.4418069626869829 -1.7040532078854156
2241 -0.29737583173769705 1.1121428951141041 -0.8674353661742742
1648 0.07724945373897549 1.091442754615364 0.04122896920036727
392 1.1274594377247125 -1.7833492576566081 -0.12401989305898702
3743 1.597177438908985 -0.46132162622170425 0.6619086159183031
3649 0.08085953771084631 0.09554780673591748 0.5214512302382242
2641 1.2194431460297352 -0.09232772296538491 0.5457588863948847
785 -1.394393620247338 0.5860416430056413 -0.5380123075435463
2005 -0.7205889068878293 -1.9049282132364442 0.683320323184876
1923 -1.4566331082508053 0.08963439675460083 0.8475260999950913
1002 -0.5822371419502538 0.30054115193915076 -0.55796872677465
1800 -0.48616004191686996 0.005296329752715305 0.08716117797793081
3446 -1.7421341816328668 0.7623676417713906 -1.1605220397920133
928 0.13942757795898592 0.5763305829708684 0.26786528454876873
3874 -2.4322034998585664 -0.3136949346406428 -2.4407498306949953
2554 0.2964308091050005 -2.8179927659728192 -1.198163522377283
2878 0.7499044669747928 -0.5761394889350145 -0.38356966766932615
2131 -0.9055558287396782 0.6657056593638394 -0.4362824615144715
2389 0.3304944234840096 -2.0306937880985623 -0.3695708469841875
721 1.6264345008854588 -1.8925732869680716 -1.1076515469680215
1076 -1.123275415113715 -2.1000304503592417 -1.7537949641776556
169 0.5408805673108239 1.3586557315879981 -0.8666720594372831
2403 0.0891209387317949 1.2083539774873229 0.43648336112932673
1069 0.6347387587987432 -0.049359540879821445 1.188796674723071
2257 1.4560449386135828 0.4866796615740686 -0.29112552429799476
656 -0.9469468206814801 -0.45500799583501733 -0.3748934313375148
1332 0.18933331799875228 -0.42202936987217166 -0.7531044087291625
1368 -1.2639604273828275 0.2723647377886601 -0.4477998865416068
2094 0.4304572606152848 -0.13478192869298922 -1.1237691265484318
3340 -1.6630663245870339 -0.5190342333155719 1.5968684745071153
2816 -0.5173875360872862 -0.11797878383033673 0.40782564260984794
176 -0.2659898670148614 0.8205559521852552 0.8054608111422359
119 0.8356187456433659 0.6557825309006832 1.0235439231735475
3020 0.8308296386680869 -0.09011232115569803 1.4240709767218889
3354 -0.4370766852352567 1.1281556495073122 -1.7446626376069625
1883 -1.893896306164691 -0.9931664240592265 0.3443942797509703
3860 -0.5238632628110331 -2.3514568999986643 0.75675175641857
3648 -0.790823351227335 -2.182531063958045 1.00214457630993
610 -0.7960045949995297 1.1606593930818896 -0.3653896841483128
2955 0.6614620852724801 -1.2868179926606624 0.1329637212777869
1072 1.21657437995143 -1.4932678307582214 0.26327366645694933
574 1.6544869778355071 0.8856394934042116 0.10873938284849193
2306 -0.21383038446381047 0.5869037966673493 0.09876251749696024
3432 0.08375321684969797 -0.7000193030253674 -0.9208173281728799
1657 0.1071315206573097 -0.3727782592017356 1.0726586444163941
3313 1.8408798324102962 -0.36879250142974485 -0.6756370479168202
238 0.06807145712469444 -0.41335631223739655 1.5208265363114242
1710 -0.21394166119915956 -1.649135026802886 -0.268344320722523
3849 -1.2254206046931835 -0.09760667332827214 0.047738579108969274
2551 -0.7068186458778489 0.34981951722797017 0.6971084690645988
964 -0.5437487222158589 0.8193495249497766 0.911471832205442
1858 0.9050896058725464 0.34102069945551833 0.4763960515498154
3480 -0.7903064505524015 1.2354274334361215 0.9445367394848689
3931 2.8614462507983824 -0.33091326677030075 0.27733846027191883
1962 -0.1620357515025094 1.2859125011629706 -1.3077359525841095
2679 -0.3165960374908539 -0.516246000836281 -0.3650696984004538
643 -0.8554081456869271 -0.15702152882809348 1.3390161506145073
2023 -0.5264112737854217 -1.2246448855482108 -0.2566134964586979
3697 -0.1782513977645006 -1.361771762616753 0.000441565040631175
46 -0.16703213377189932 2.8139659977220397 -1.1609785778284438
3828 1.0984225499704139 0.16126248658696443 -0.10604203913444243
1926 -0.3675363020137666 0.6400499731127387 0.27328357041444074
134 0.8694074835283455 -0.5100902172801899 -0.8118147610005175
322 0.7091650754232847 -0.2694295496797605 -2.4387792157807358
3192 1.6956697281379671 -0.29526611340702014 -0.5515797367235512
3081 0.7722615307893559 -1.2510827446440782 -0.0800105429881642
1753 -0.909148374055366 -1.008107703742251 0.2295346781768293
3185 -0.3104651277369016 1.1797743180409828 -0.7327274122610646
3156 0.6767530605268672 -0.20968721378194471 -0.42431227374176983
589 -0.8487790559420497 -0.038385072266576815 2.051369254245013
3776 -0.704209114425856 1.0774976941948895 1.188189766315806
2393 -0.04686038615091862 0.8013172412428885 0.8545286183611175
298 1.8416789289501347 0.9066134207238572 0.7361693883516498
394 -1.4196836276660734 -0.14887463470326343 -0.18537110986511554
79 2.159732598914781 -0.29162259185983314 -1.3996546007281547
3225 -1.2967929084034526 0.142876448705575 -0.34205843605831915
2181 0.6939678122855139 0.6098211726951144 -0.4281034542486577
2025 -2.2109601619604744 -1.3241787767536064 0.9933655673509187
1179 1.0928676134756896 -0.8798429225971162 0.20416487059695823
1532 0.6279025547073832 1.9367702059967349 -0.5078840995531421
1664 0.03283525788928688 2.3022353257166355 -1.3099121568756003
3000 -0.720199211925592 0.6316962654723223 -0.8086094838268645
3825 -0.470972751968881 1.0745415201800252 -1.160981496211651
191 -1.7651744635699373 -1.1286444338568948 -1.4504218447746575
838 0.2050468804014276 -1.5328197893822655 -0.0603820821010124
1775 -0.351047237407328 -0.08626537227781378 -0.8936951619814942
1222 1.818982307771345 -0.8802156710935464 1.0634999740888968
1661 0.09231810138839251 -0.8801459462679583 -1.6031927428986334
1084 -0.03703036199292995 0.3353715025076838 0.6912852439935232
1408 0.9696747461617637 -0.919086393676954 -0.47013116016168854
3306 -0.45081980518959874 0.053123638409817216 -1.3114291632219417
1496 0.468300157887932 -1.2949078579675397 -0.11380395240407679
3123 -1.8438159235273361 -0.2273082534209765 0.8777248469753842
631 1.6614601676569964 -0.016739159300609065 0.9973478142440109
2921 0.006654115997905793 -0.941573732421404 -0.19492397814622453
2725 2.5740424082306883 -0.8264503830149159 0.17280809471680958
2640 -0.8911950426289057 -0.9884507361900743 -1.3582403251681812
1181 0.1956217139985727 -1.0074588278315058 -1.1311885282262788
584 -0.7821726132770749 0.1691218217500429 -0.9152873917037507
1748 -0.4444804112329548 1.0802406738861063 -1.7264163727857833
3118 -2.1343908447826743 0.46926178684084124 -0.6294026770170716
2703 -0.5655698086227058 0.8798815279683672 -1.7473485194310778
3920 0.26111167416393183 -0.10880289804743608 -0.1793304221165656
84 -0.43954430964147323 0.8165550620666717 -1.049544842352831
684 -1.2802743207424871 -0.1192616767438743 -2.639447027150504
3738 -0.15881809352273124 0.3302333635241714 -1.2705024965490461
3131 0.8673325429652499 -0.8870808549772243 -1.2984744942154758
599 0.6363431075568162 0.6257924071307965 0.2339946610039608
896 -2.476754076125225 -0.20807982192319216 -1.3144315399468562
2108 0.04059454719026575 0.23362392114110464 -1.473770572432765
20 0.06871182680970646 -0.1379980299906717 1.1687975404292679
853 0.7697516222026183 -1.697401961516918 -0.17640751353233744
3159 0.8887885239771499 0.007950908862132882 0.43462738244317384
3675 1.5704453169439803 1.0093129541420731 0.24944201987805628
2218 -0.7300907218802952 0.6636915930122804 -0.01635585709100971
1003 1.0186036998777626 -0.06255588583555566 2.7393249385925915
1517 0.008974776250411856 0.014084150452322268 0.4174399164636442
351 2.147970750938237 -0.30965831655594167 -0.5513969899899388
1404 1.1773235672334221 -0.8657554851701819 -0.4045494130562692
1466 -0.7289809181160231 -2.1577657513856217 -0.6682172183795528
1362 0.9282333833322324 -1.769356789455573 0.6654794228050842
409 0.9294389119231738 0.9153795261821671 1.4303436157044533
2999 0.9446307495186766 0.7968273961975011 -2.1912967539638006
2663 0.17445770970613741 1.2743615970055098 0.026242042272157342
383 -0.7767494047042997 0.2184862491281912 -0.1441221558541327
1825 -0.4659242780085967 -0.8583274417805818 0.3868022907212482
2701 -0.3624196430544469 -0.4879198069544362 -0.7304718232855629
622 -0.6736624864890182 0.5460087347522876 -0.3257489249086563
2239 -0.974330896268098 -0.8837270595058698 0.4987574125707142
2319 2.3205014787414093 1.0810678818115993 -0.545809195818205
3453 1.7268213331011395 -0.7152973097542996 0.1307195793680079
1096 -0.8982179667463741 0.43466035510304984 0.6784367801514313
1717 -1.18092178348424 0.602163768791123 -0.14493558183776117
3896 0.48537375239907926 -0.9467539906309761 1.594052050668584
2915 -0.5086337768363399 -1.2693800327767164 0.19214187892355336
1779 -0.34762984806063046 -1.8726866782970422 1.3059807559744936
1952 -0.9407862447151234 -0.0037176646914406585 -0.015211366430963961
3496 -1.332561352353272 0.1051000495799437 0.3130341173096381
3898 -0.4123740032264938 0.4647961555962959 -0.06159116711328533
1700 -0.2952895491742558 0.9962449520767984 -0.8242850423963853
759 1.9903647342922826 1.592945173820816 0.5618678616220745
3566 -0.28759577183980645 0.8888609292911651 0.9788596524072839
2451 -0.37188633580376146 -0.9596628992659628 0.34746172747767473
569 0.5915142943944208 -0.39068542947845386 -0.6970377993250195
3245 1.5010006293621427 1.0529772617436852 -0.47634298272182407
3557 0.8159345884755819 1.465418144012988 -0.14582739979452847
451 -0.7006306688984664 -0.8029629331647883 -0.5734404461335884
3721 0.3681641797420015 -1.6967286455746589 1.4798078540522914
327 0.6504447640761252 -1.2675969614864508 0.0015789513930016975
2412 0.8539550898669179 1.31504539644235 1.2307354322372286
1724 -0.3907064775983788 0.19658277264481583 -1.5287358240628792
3377 -0.908751995423052 -0.8106451905681827 0.893274252221222
1726 -0.10589800504620317 -1.0387871759320888 0.49517545908940996
427 -0.11551664660136259 2.116799224858725 -0.03453217392309377
29 -0.2633629004960994 0.46999104397936425 -0.6685015638881066
2104 -0.5785932972644479 0.838484270271487 -0.6298182321360744
99 0.36286100418474 1.0990806838823575 -1.0927844690272785
247 -0.8708927250856129 -0.24730418895771056 -2.369292861622898
23 -0.6957400064684915 1.1762421652145771 -1.1301052440412165
1146 0.9134060202856267 0.07786654410551916 2.103328644614177
2288 0.31865158167250507 0.9343693322516996 1.2407096290830644
2276 0.7578492655090506 0.47123860096943776 -1.5437726106181753
3722 -0.02814320860898541 0.7047665285886359 -0.4837830091822151
2807 0.34362267370387173 1.563115475326561 -0.2900176643136182
1941 1.262612778214115 -1.0105902531263433 -0.530132607463373
2211 1.8685380851041526 0.025489756932716948 -0.42002632531481604
931 -0.7460344958709115 0.6760391065332488 -0.019421040587461687
727 -1.3428081593747119 -1.5669697385794417 -1.106014093834196
3438 -0.3596723142007063 -0.43678145675417734 -0.5594735742745941
999 0.12458114183410611 -0.1144811527103035 1.9593102828177866
901 -0.6650400386588091 -0.3719647058688322 1.045394106397628
3112 0.8021717056642863 -0.08591725508951957 -0.3966319433594908
1396 -0.4910576922470571 1.0297896772866226 -0.22373268639147925
1719 -1.191368215770497 0.26448481288306247 -2.140987771284444
3097 -0.34189668636433207 -0.5680868498103203 0.5817812537000429
2283 -0.19191178652942403 -0.2711555823552616 -0.21834390835189715
985 -0.3961607948396552 -1.1029256720369771 -0.8360129732218388
1947 -0.3445307001942976 1.2535897584249356 1.2185757369832022
3181 1.9590623827573201 0.017902237312722134 2.5557275487826785
3051 0.7420219802013072 -0.6051711639404804 0.3281590572404654
2843 -2.635577954218808 1.0982264167121933 0.7731785372926576
2928 0.7790366980290122 1.8309316528770243 -0.5431392269895716
2584 -1.1641132946583015 1.00154591610986 -0.6431484401537825
3110 0.2562049046302397 0.35387962933024847 1.3596077137151736
2691 -0.0023045424457242207 -0.9026952553957173 0.11916457928516482
2995 1.1804291112431191 -1.6005129844361905 -0.3576992414549322
3547 0.3791485245881314 -2.3606540957038757 -1.389472805068514
417 1.4477490850873889 1.6963357236704144 -1.5914317346698308
1541 -1.416411658516429 -0.036734749122609364 -0.2003748365319608
2795 -0.5827941241518604 0.38534628514395836 -1.0424483599583794
724 -1.650462478324824 0.01876442727709203 1.3438161255466918
1733 0.01269905396852402 -1.4406746089547178 0.35809529429450354
2556 -2.014008653812478 -0.11269539631719434 -1.3642257255775125
688 -0.24195501231841554 -0.7231092091503486 -0.25909455957499655
242 1.1006148012303734 0.6624117054603793 0.8336578059920302
1412 -1.0345209334336967 -0.038439177869833564 -0.9326860053327753
1845 0.5098582510281722 -0.07053213644843981 -1.0793798444484952
3459 -1.6796286286839177 0.5497008384205362 1.2902954969972018
3418 1.0611106674974922 1.4710406190874423 -0.884467817142738
3937 0.006290923843087072 1.5663394818463687 -0.24728075112540013
1593 1.1861959007129854 -0.13851275914507527 -0.7446780780286678
145 0.7226727549915742 0.9559499152006526 0.16471272719676278
206 -0.7428020435803744 0.2946609657169188 -0.08009910439984189
3264 -0.06559053148767034 -0.3158828357267492 0.2842896104737385
3514 -1.2475665604829056 0.6245141677668516 -0.41374397618047337
2720 0.585732290231576 -1.1443276447033093 0.011808737141595263
2769 1.8778455606925535 0.7299973221950657 -0.15091511025832405
3700 0.274891078251542 -2.1300128659904747 -0.728260136483976
342 0.04233726650947982 -0.9343385469679519 0.584596165141547
2567 -0.8704984093691495 -0.17085027107328882 0.1945953052344282
3787 -1.602615428123957 0.529194973678764 0.6189979087075006
302 0.4843816334269242 -0.07966504942109501 0.18650525343854027
1142 -1.228956933411602 -1.0385095839062117 1.1602198516613118
1960 1.3569556782483696 1.2746256817602781 -0.5834906535690801
345 -0.3377305372922977 0.4035549197799258 -0.9963123275058272
2030 -1.305969440868281 -0.6024567260084588 1.2269608410918744
2309 -0.8799021097667827 0.8121473294473839 0.6660310024620378
533 -1.265781536772761 0.6518052231460097 -0.711867488702633
2881 -1.596394337448505 -1.3942759724290967 0.7944208604090497
1977 -0.6376841082820411 -0.704690068664322 -0.6054658802493236
3284 -0.8121280947336289 -1.3980384852477081 1.1051247305173186
3682 -0.48779930803860594 0.3765100676737501 0.29925858636281083
2320 0.8665417553719428 -0.19993651388300865 0.5821610151975973
2525 1.095253677871232 1.0272039953637007 -1.9285621061172857
2474 -0.7797439308682453 -0.040576509712472036 1.3548155961239556
3664 -1.9343643901902912 -0.9501013706405838 -1.1546681467820454
2461 -0.0407698704550068 0.7349235738887834 1.1272595343243248
3683 1.9226008945467106 0.17975145226837763 0.03900284718722041
1916 -0.8221407517391224 -1.1493906902377877 -1.1068386993374777
492 -0.185945949808158 -0.8333465606110844 0.3208282505040748
3329 0.7763058057540155 0.9295998617911702 0.32047629146857026
787 1.4089752005696556 0.36510314989616083 -0.770382129522174
3089 -0.7535219108529312 0.3489726547349507 -0.1534138515125261
2123 0.0728555143670261 -1.8780045302239434 1.4705479060694588
2977 -1.884129657607184 0.8928727226034384 -0.1648486775454797
1446 -0.6636681538262924 1.005914236308749 1.6738090877829626
2718 0.1742424069944106 -1.8073010293942107 0.5281739350893204
3669 0.7456173096805855 1.0272282388937013 -0.3919579172903744
3348 2.506290149113806 -1.0145421095655833 -0.09971122687142027
478 0.517115616525672 1.7554909264266112 0.5758200260024273
2093 -0.45165140432203776 -1.1019198594811268 -1.1339432740727713
2470 0.3221279941625212 1.327203103564143 -0.4838427631577811
3908 0.29082625385180083 1.311189491085232 -0.49296453935191925
426 0.8895986226809144 -1.3479590331524005 -0.06643710413811883
1077 1.8797446834273113 -3.0157807397086374 -0.474021226467151
2149 0.5700496745919031 -0.03298845067602403 -0.4826600268508558
399 0.20773047989305093 -0.3052816611358621 -0.13568538290201032
348 -0.23162734993843412 0.11103686222064264 -0.43915667114054824
2540 -0.047417319483384936 -4.205899346347081 0.6024339672245768
139 1.7185038841834277 -0.21448974120707343 0.21782833533926285
2369 0.4167234027189829 -0.3190949870761144 1.0871508902861786
2888 -1.0095527953999963 0.04972214580771008 0.34803169489386915
876 0.44696726205051684 1.0500083210503781 1.436323480335034
2615 -0.2333833562897685 0.6468312171721992 -0.9629439615188736
178 -0.599270060346769 1.3842016897616995 -0.8909269540862023
2682 -0.43255162085615445 -3.0217597331700574 1.6533811480681813
2927 -1.1970797914473148 0.03423882766148681 -0.5244730780410698
3917 -1.35957742248742 2.3014621703551605 -0.3003368528364011
2696 0.6785897771913525 2.097081958054457 0.027947831216266376
609 1.15771771357034 -0.7877174843497176 0.046266761450978584
1416 -2.4284217316099856 -0.2347501011882702 -2.2160609966220877
2184 0.13373279638991953 -0.6964774292900483 -0.09288680862737853
855 0.2395507371429486 -1.3958470553448148 -0.053888485558024016
2452 0.12300258093774183 0.6004010533789348 0.49028763876672127
2032 -0.8734636517225617 0.1274364023201471 -1.6343262936465008
233 -0.7171307440154702 0.2288211980194836 0.6873089794293904
3775 0.9278497636537758 0.8901239820459448 -0.1810015985275378
3167 0.21020632546241141 1.7587579172952614 0.3927450627347283
2487 0.2532807162184502 0.5575348467450963 1.7333101990303401
3070 -1.9703298977387822 1.0583938057852762 0.07794116545506236
1019 0.3134760447132639 -0.9268214374315709 0.31634552300631247
3603 0.6318115671795921 -0.3794943855194589 -0.2084762792701599
132 0.7187093925488204 0.8949579290586595 0.024194204973330035
2496 0.30384969335819556 0.458416910251736 0.2513659699428267
752 -0.739933901939359 -1.070668916349357 0.12969341714244426
1475 1.189181792464942 0.5976001544690585 -1.1328739291977383
3222 0.2986589674832355 -0.2114399741313289 -0.018030047260846893
1928 0.20412345158195896 0.6187917033240383 0.34781282360133997
489 -0.2568015755264643 -0.06344274521018621 -0.10188226985474132
3069 -0.2595970035064486 1.7898716255453337 -0.5418138616964018
3640 0.7669198790977696 -0.1959951079765324 0.7431509103431777
1363 0.4373629758311186 0.8815891177343012 -0.10508805872133017
754 0.7253110847061724 -0.417063963332917 1.5724708980533633
335 0.31277983358890854 -0.11628726864741426 -0.4261747800248267
1578 2.8364171889256107 0.20159550050071 -0.9625541690082778
2499 0.652636363014479 -0.9877379937733867 1.3956304967009059
1091 0.24114225122069977 0.1470133333818453 0.9353361101599889
1608 1.1563416514447893 -1.4770282163407364 -0.9392855356932729
3136 -1.5934319732505084 -0.25085269363593565 -0.339220796606881
3241 1.8402503874744665 -2.2227327451452066 0.3378475853466692
3273 -1.0538592793335784 -0.10129345311058678 0.6635032027903023
1805 1.2586530773905498 -0.8294966198426034 -0.8128549046238965
2588 -0.6264908492086607 -0.3619584596286356 -0.7137745321917763
3710 2.129382487163441 -0.514103621096106 1.2342055513142722
743 0.39390321047526555 -1.078261340049077 1.082088654058435
2152 -0.25671123765018145 1.522890051643861 0.06109971550138726
3411 0.21339666034257673 -0.44375056934206064 1.0154891732538243
418 -0.4471496516042781 -0.020773478260632337 -0.6447978313917494
554 -0.2635120776804406 0.4017608151009851 1.4254787433341338
3066 1.2782466738499572 2.12618502468395 0.994469648562016
3373 -0.44967319884574986 1.3423537613519783 0.07817908534428192
2686 -0.5130907806554724 0.3782520881827557 1.7801384563035483
372 0.22700272669274937 0.5365357772436757 -1.4915728286404297
136 0.30025207997076353 0.9804785078379541 1.438234991082407
3425 -0.1798543327237763 -1.7955106962090257 0.20298145958135547
2333 0.5386402540112954 -0.6577176262107867 -1.3734926706061814
1792 -2.2372151500273056 0.6910382876590887 0.549591058683442
1528 0.7369996589588105 0.1889028582420537 0.3175706186350121
3007 -1.8429053453688236 -0.6076790287939591 -0.19921591732314017
3642 0.1441457412374274 0.32008319291847 0.3175393472132204
3719 0.056161417412552234 1.3873094894229352 -2.4573029031644853
2478 1.0939963242956585 -0.6197028010556294 -0.33293255108487935
3599 0.8079017777155137 0.12334774258967017 -0.3326312168275276
3402 -0.9099289024771939 -0.17403727511973258 1.1709402067984553
880 0.5858055743505033 0.020709654646758172 0.8912964824430057
886 0.9489945959196121 0.6731264234255516 -1.849510632336662
606 0.34880142529332764 -0.6200815542224888 1.151901480937498
3899 -0.07665076638484988 -0.47629405476331 1.2392737415549562
840 1.598131506583192 -1.2615555779297027 0.350764342752203
679 0.004877260966352815 -0.18594226475031592 -2.7609269488009254
3764 -0.7391080019363339 -0.06638283833215596 1.7938737616107063
2782 -2.2971670556803465 0.05747974722619504 -1.186833769335522
1613 -0.1511313638978152 -1.2061575459937885 -1.277667591273013
1299 0.7126505098022452 -0.2776881469828341 0.2724629923315958
2187 0.6441141907901559 1.2716715640982008 0.1127065979598891
3079 -0.7647349778626569 -1.0836457045919312 0.9745015827916772
2019 -0.25225361673756397 0.7104866066124182 -0.010267591140351648
2325 -0.0009530840318196023 -0.4525226121829001 -0.5957159186791658
1108 -1.1335784317493633 0.32013962756141956 -1.5079923595650517
3098 -0.14129149854187886 -0.2641286928349486 1.7013917752528225
1028 0.7805164740452106 0.3526343617461377 0.8814168071480862
2147 1.4012762870404476 -0.7246729775010641 0.4875021413874387
995 -1.0444716624035315 1.0770859959639254 0.07231980162172875
2566 -0.6789081317891132 -0.744649735591122 -0.7449309771902984
2229 -0.8624872265683016 -0.3967495404999027 -0.7555492926939352
3793 0.056373550088373275 0.23753794265046385 -0.09357594899423424
534 0.07732186502900919 -0.6133360405242284 -1.0413453010741303
563 -0.37102517928213813 -0.23769440219246946 -0.1498863133831326
2861 0.07467090831423116 -0.0021286874735071265 0.7365979809030827
1158 0.8624707850676497 -0.16464474331312054 1.8940889957067388
1350 1.4379133955176533 -0.6038448070854544 0.2880019657412876
508 0.29311795640772814 0.9869482209150161 -0.879113497057306
3494 -0.04668905331014498 -0.8286646886249415 1.9996149248866724
1890 0.01136214519653206 -1.27004114689014 0.4390194207052425
192 0.8744392522855302 -1.433046627034131 -1.7396121938009246
746 -1.201151475122337 0.7679066425522025 -0.46672519748487584
3863 0.6242047016369511 -2.191706454952051 1.9911221669997656
1472 -1.124697808886772 2.804529144912888 1.0094239504857156
3998 -0.43125407930908793 0.3889694867861221 -0.9809496530153642
2737 0.5536349988547027 0.18586360924336834 -1.5829529783902438
1692 0.5734630821788497 -0.8028189641945493 -0.30688456698870453
1016 -0.6880595248909411 -0.07846704084223383 0.4335134987278183
959 0.694950933484894 -0.6404555742554462 1.5101732753008315
2065 -0.7428150400389798 0.9516477268672331 -0.6089428369711054
3690 -0.452487929453739 -1.3539998370851156 0.39445921994546124
624 0.15491404754022142 -0.1655483712311338 -1.068772165657697
3353 -0.028321144552066278 -2.1023196530796424 -0.7692411173760909
1334 -0.1407995842706619 0.5657580387104731 0.22875415562176257
618 -0.28275286457564164 -0.10729181008937087 0.08883664359005759
2653 -0.7776260825204298 2.1016455064225603 0.6644596334740941
405 -1.9889978116254967 1.4752115740542295 0.48754472102659185
2299 -0.1847659406735671 -0.28232290727061593 0.3510058589375666
849 -0.2996182344933957 0.3216067318961362 0.9349880259927016
3187 1.1949339765677696 -0.3839885021268322 -0.8929780869901525
2952 -0.26086010374223145 -0.07848562493211998 0.5234776017346949
2404 -1.0961971412767806 -0.6032483052369149 1.148966837520555
1102 0.6221910040559291 -0.64203849916904 -0.2065155059279322
3625 1.5334157115324365 -1.618789870433654 0.35886278911813174
2092 -0.7422720865056417 -0.7170440749175635 0.08154396042770878
1763 0.9780391444715015 0.6224190436145199 -0.3209938419640858
1565 0.8915229771336587 0.17304967370597066 0.5510619816813446
3151 -1.002726457944796 0.009065193207792813 -0.6424645356489539
2626 -0.2648981938250357 2.541095835453276 -0.8417752165821795
1745 0.26841783028253424 -0.1760867139400709 -0.47605020586354907
951 -1.1518096587941486 -0.40402339468358145 0.2243279524424522
497 0.31486405273137463 1.3371236997272429 1.440989515625423
1162 1.1732513383878964 0.583888318765771 1.1342930002410616
1614 -0.21040300038887397 -1.426783210969148 1.014437671665344
2193 0.17801679973939324 0.5288099315243908 0.7459160858805716
918 0.6238967125181518 -0.5350107258077278 0.2720405557050635
1896 1.051499399977985 -0.5574234947505867 -1.448623531952629
3615 0.782988591346276 -0.023423111373582103 -0.3517856935079246
488 -0.09039221025478485 -0.5230708282312267 -0.37934493774613615
1151 0.9047597770850964 -0.6160787827700992 1.0421709088462316
3195 -0.5403077759502257 -0.1415374823336865 0.6051800632529041
2561 -0.5390317223923172 0.39673125607688836 0.9674818515383006
1233 -0.62410232106714 0.8089225944304093 0.11059531691833742
3271 -1.2172672878145632 -1.3867826373570975 -0.41833767387167603
3886 0.2026287700502406 0.013004095205709248 0.2544670167267773
3218 2.0336661942681906 -0.3874851784935677 0.6199618586820023
1713 1.5993903894412167 -1.606099320067783 -0.8113237622520988
3478 0.27206830182258424 0.5951796041474253 -2.2271578350469197
49 1.4144255937208507 0.2776382312822779 0.11286709246864741
1376 0.894213795366985 1.1361237333101344 -1.5086613253396386
291 -2.439232123197916 -0.21417972976479052 -1.1475716560562164
946 0.8598875364705464 0.573602643437217 0.054207080801934954
2507 1.727566877862895 0.43060487918934554 1.490138633669503
3893 -0.2124828290273333 0.6758913833622273 0.5953663642003992
3939 -0.04189651527694443 0.6386603505770474 0.07411541975289174
2494 1.5882452810995713 -1.03347614745912 0.012500694125751088
1171 1.0112790802951412 0.8691630880557167 -1.3299087220355332
2583 -0.34105412152178505 0.13672907266133658 -0.37870611791472625
2183 -1.6412123056912824 -1.4683616867280325 0.657436754759292
2307 -0.8789667408422465 0.9321491683231327 -1.1453451251782933
3639 0.8740639146788219 -0.17932171295479551 1.4061663645475257
3337 1.0976770267051361 1.0893712191579128 0.5278442941932073
803 0.1194945670988096 1.499713442777747 0.5534285978774648
2917 1.554260284098025 -1.0621073610806695 0.5453538086829772
3302 0.4228953457619819 1.1897544039032717 -0.8266186042957452
1339 -0.04286156433368644 1.199715005377732 0.15037041945960497
1025 -0.9420929220650825 -0.7739793151231517 -1.1435221382475982
1535 0.41758422165845566 0.5938461015532124 0.31051895763300424
1275 -0.12742162728808723 1.2013096723531174 0.38034768325427115
3923 0.9931083326085881 1.5291086350172671 -1.2771093795350374
1654 -0.9068443955164847 -0.6290042522029051 1.3763036650664207
2207 -0.23447817282206873 0.05229528559058339 -0.1097921720607031
3691 2.4156055508550422 0.06617343503695722 -0.3465244673486007
1872 -0.734357901539947 1.25530919448881 0.5858770686773569
2942 1.0628404668367788 -0.17244773707149946 -0.18306817320923618
1286 -0.12053801380440074 0.5696837638627316 0.4878162151782949
695 1.91801298952635 -1.3474398103074932 -1.243842727437137
1020 -0.7568751792711472 -0.02878541240472293 -0.3248424762858806
1153 -0.5320941547824364 -1.545422589349744 0.8236636121134256
2714 -1.083778549190962 -1.2544130565029716 -0.754641589264446
2260 0.08547968413033871 1.4732082920236393 0.2980918203832894
1369 -1.146677549641342 0.32005790413140045 0.45055673878125757
230 1.100296597425204 -1.3259648171258924 0.4657759043676989
3013 -2.3309490180672814 0.35091578232697757 -0.42050649369041787
1817 0.020193397305528698 0.8481617083631485 -0.30758172017803775
1230 0.1475536931305755 0.170633863428497 0.23904416818498292
3200 -0.47509615281321793 0.7450431514000836 0.27273418659955867
279 0.4075549427803643 -1.6221831338955905 0.18190747594726064
3841 -0.008368670926013445 0.05881076139980464 0.30462355340685165
215 -0.5701083343489916 0.004569413382290299 0.4385441167550864
3645 0.688132049730781 -0.7986759048987074 -1.4870214103133077
3513 0.36199996947387275 -1.3470962048866724 -0.4777007838397647
2645 -0.9392014927935576 0.5719928382798934 0.18926137626159298
2822 0.6943996080561874 -0.5699929766395654 -2.146218171119703
671 0.24493130362943696 0.6589897430662746 0.8257186013087903
2042 -0.30530065972758014 0.44122148167606273 0.9786091057487166
370 0.7654861589092883 0.5504718879970484 -1.1163071792952866
2329 -0.9241078899068812 -0.7367597287631237 0.7015601826417124
3985 -1.2060074566363137 0.2272260521464045 0.9761835177816153
1774 -1.0015369180841511 2.0190035725586406 0.7733154923197297
2277 -0.025415368367422277 -0.4553157417894958 -0.08787540525374782
3869 -1.851263367121917 0.6976052287661729 0.12984419390685673
1682 0.39171888680077477 0.1762415074911139 2.3165396090996784
240 0.10823660076275451 -0.3961418958628576 -0.08932350577514546
3445 0.705024332620955 0.7154019694868214 1.653549802220961
1746 -1.2120835086168835 1.5293619605963935 -0.15312249736707653
1202 -0.25038199327917854 -0.42755933508915794 -1.7881382952334157
1635 -0.9912852814185801 -0.32081769679270894 -0.48652857749272155
2446 -0.3874710506403069 -0.5141595951426704 -0.9710774410107328
1579 0.5441744184970948 -0.29670050039050694 -0.6285378407435296
729 -0.5694412462378021 -0.5370032331713407 1.914241777675253
3016 -0.0795059472581595 1.0660129621382854 0.21834334114560947
914 -0.623566201770645 1.7198492085703918 -0.6217999511864529
2100 1.1685899586340904 -0.4370069507255557 0.24987345769522773
1642 -0.2443474704890441 -1.1150631251046506 -0.31455307378151276
2787 -0.40251277573094696 0.2668813632534106 1.8455112109283667
2868 0.09287037100785192 0.42645590150015894 -0.07924308414859745
2279 -1.5189516224709236 -0.12767092731101026 0.2116788309163451
653 -0.08268879734760859 1.158700539197404 1.4590569723226796
3323 2.916080366328535 -0.44311158115886906 -0.608153685107172
263 0.1330025097974937 -0.6346029428648156 -0.32476589014256124
2972 -0.5961532608263523 -0.7497046848483042 -0.40970809761373883
595 0.4558519310195203 1.215517532211592 -0.6724195072664704
1486 1.2614481705309222 0.11819412219230956 -2.1273329201663547
442 -0.07342933310118357 0.5067328317527805 -0.6349271942073976
1372 1.2790879460109432 0.8776361856353933 0.6455514440458041
1794 1.1718291784129116 0.9843480106106285 -0.6189963282075405
3565 0.1833225380824546 1.0407542047527572 -0.647869870369666
2020 1.1767247923705115 -1.1781738335122312 0.28772575675086093
3929 0.5992311065792698 -0.41838684708553076 0.5485496040362442
3033 -1.7871522940364388 0.004103726513742381 1.130702954791284
702 -0.9256285580857528 0.8984535855699682 0.7452709181722716
3282 -0.2777860684943082 1.0160849691190963 0.6043929967782189
860 1.0251419356177902 -0.9802561874770157 -1.0771426558805628
625 0.7267143667239271 0.14106841401843734 -0.39374209474597077
2926 0.9268111685830853 0.2746109579413121 -0.14015121549017606
2230 -0.9995355884184375 -1.059154090103154 -1.5211606226228516
2886 0.6192652984980243 2.111954912057251 2.0379424321895505
3750 0.8093056113567604 0.09508777551376726 0.046176194518758144
2341 0.208651181174439 -0.7866128491549802 0.6058960298547361
1544 -1.483804654157023 -0.5194278730731663 1.9077159455293267
2437 1.3708700926339314 1.6005817397836222 0.8894535931160086
2675 1.3858857679548064 -0.3555132545579826 0.3140116350550932
3384 0.6251323350510632 0.12188666361486318 0.9927575754905014
3277 -1.4048829582234676 -0.027775911239170465 0.40943423198138285
748 -0.5758661891839219 -0.6194650796649865 -0.8291501815254121
3006 -0.9690254469950722 -0.7243375722857675 0.6573303162709065
2558 0.8003034367765979 -0.713366854302835 2.3257313171167726
3731 -1.7633968486237952 1.1432097950596412 0.8756589644785576
2808 -0.5132396476340163 -1.3991363091342206 0.16362319730092165
1695 0.6512404616782753 -0.5307906462439832 1.4942870412362061
2240 -0.9200303391442815 1.2562820492996267 -1.384089340073865
3037 0.1307407518709643 -0.8292641544455339 0.03456739207535736
1696 0.018331210984884765 0.10634587932427016 0.34128424793681456
1154 0.39958865867163224 -0.36828354345840714 0.3615130455095102
483 0.8040315842676944 1.663103383802496 0.5630143140785804
948 0.958478116580498 0.14401580779612602 0.1494773838242332
1547 0.3565200718126353 -1.3214167236489625 0.5432735115611484
2925 0.6496258492289778 -1.9271004410500132 -0.6343732386901877
3744 0.1013787243153221 -0.5059241437292366 -0.4749315060860823
3293 0.724713490777273 -1.5401653592524671 -0.9385792047385154
500 -0.05102373057988567 0.26124566905905655 -1.4102219345030491
1309 -1.144591261385177 0.6608712271281318 -0.03703420833406115
2665 -0.43167229084713304 -0.4459286789301277 0.07531566627703865
1985 0.2088858630333075 0.9726680305000901 -0.15133323046350555
723 -0.6774396659779943 -0.7982573352916894 1.914919792257318
2168 0.04385798466524354 -0.2524558883632418 -0.1672169871181993
2332 -0.5210761573098572 -0.43928778028852616 -0.5316619702877009
3326 -0.57615475078798 -1.8554675182372409 1.9724460114331301
2130 1.5631084047540005 1.1888575480426564 0.8077575477410697
3746 -0.3778258159258251 -1.3414331807510327 -1.5361024285377576
862 0.402455112217913 2.2975359081297793 -0.7637600179755777
1892 -1.0786951910553286 -0.6949355828395236 1.072160513342697
1464 0.9052723787840635 0.23319107942553113 0.8562822366961483
3900 -0.6035928252618679 -0.28674732013979143 1.1664549199712282
3837 1.0060024815414277 1.2817918703349762 -0.13109671545606683
2040 -0.5581278536213565 -0.2021695689321334 -0.030725459587174143
2638 -0.6760186804258502 0.2717831067125679 0.2892172419528259
51 1.634560658964126 0.011183642767083918 0.3070079960029229
1196 1.7132496020548895 0.8982964678960265 1.3953013726506975
1640 1.0068141401591877 -0.7353674299851561 -0.8186120352496633
2824 0.9484502537287729 -0.9829826495480021 1.834104939850923
3658 -0.4498672676648766 -0.15758346663105527 -1.3304295978020093
2453 -0.16210849144762213 -0.04295978354741874 -0.6692720075977616
2541 0.719617012192005 -0.23975185301423213 2.5346683894419053
3975 1.6012585898666756 0.37778385631380806 0.4992287736391964
1047 -1.3520505937407044 0.4023157114449749 -0.7000474261662599
1946 -0.5601766908405583 -0.7508498796275165 0.48376323014470735
2442 0.15081257527054684 0.9494445137640617 0.8225489456764535
2624 0.11949759963050344 -0.8579679326933293 -0.22274388314172108
1168 -0.9010073841578392 -0.11666541721897833 -0.01733257229145765
150 -0.23159144131097478 -0.7274977728116727 -0.5675087839287057
3386 0.4878292742829338 -0.7758651873241192 -0.03316561911881232
1351 -0.6058229283399064 -0.15086980841676104 -1.000437550516496
146 -1.5896300906546146 0.4950821450753933 2.3989310149816285
3533 0.34126579330621293 0.5751716251286799 0.9113284013165444
3154 -1.0441309791457847 0.9472687611676535 -2.003381956943029
1515 -0.7847298958352394 2.1339652972098975 -0.9533066694930351
1264 -1.0309481122349167 0.7382556394614397 -0.14514359260904008
2044 -0.20232828900632466 0.03891929657295755 1.7849245845361743
3468 -0.9068173005474914 0.6857025673533226 -0.6420193071008349
2916 -2.1060149048814436 0.9560677937758639 -0.6612879685712797
3190 -0.0914554390539759 -0.9407836933251544 0.553613342809756
3498 -0.41305651295615975 1.1075598283609545 1.0557136531998577
506 -0.5982210831977037 0.21400553622482107 1.524679570891965
1068 0.44561079974630347 0.7922542592929128 -2.527827294607886
2391 -1.1892028008168103 -0.32947541575227834 -0.44962105950128367
2988 0.20269553916091637 0.109451994380993 2.42978594951741
2555 -1.3185060560988626 1.0709880562932472 -0.32266714976095084
3861 0.03765032802099762 0.3355739005766963 0.3816333288132747
22 -2.7956643634708156 0.886874543161914 0.4631860975634019
1685 1.0049082807172682 -1.0816133612460692 0.6437935315812722
2047 -0.6694535606645224 2.4759475785874767 0.7181955433308385
2308 -1.7924901853257642 -0.25538140933970854 -0.942400271242479
856 0.3137377698602625 -0.03362865539167571 0.41922880586094363
1826 -1.034529905928477 1.086395378124436 1.182662408445282
1622 0.5759941689473681 0.18428181395387178 -0.4648582028626688
597 -0.8982184540053377 1.5387323970199092 -0.5328858825035445
94 1.4193792310118707 -0.5806921062171726 -0.28860045208562846
3688 0.5602588751612977 -0.12826551504634637 0.6578903037041535
2545 -1.2020506475248132 0.3070527072362003 -0.6083060584977005
981 0.6450141524307716 0.6463891935720747 0.9142517372294171
1994 0.3858486533104262 -1.7147994156091066 0.8251985195341355
807 2.1606611361404906 0.6380334004833995 -0.7733230421069643
2791 -2.6532081668695975 0.8255398538192046 -1.1358977718115781
2546 0.1296675796671371 1.399990251009571 0.31523723175236434
13 -0.42612626443257734 0.1908098991918464 0.37325078170243003
560 1.8148583126687927 1.7739215441381435 1.39304072856278
801 0.6660953097132979 0.021482482033577225 0.2572536580678767
2575 0.5025005865615667 -0.7986275613474096 -0.3522038930562992
1267 1.0168748604466602 -1.3614085772996656 0.298780547157571
1869 -2.816760184438347 0.08333006032516241 -1.1774557774468157
2597 -1.1548802936044678 -0.9809056810522115 -0.2619205047841148
1235 0.586590341268121 -0.7720123999406604 -0.3423316974339588
217 1.2679124491284675 1.9736832927365207 -1.5993157439021568
2347 0.5700181730303789 -1.8933730781281122 -1.8078443486276463
3819 0.31910120789881935 0.6398546892671323 -0.607129953970906
542 -0.38264667373231953 -1.7886617144103827 1.1108718081218467
2146 -1.1717998752467336 -0.1435599204212003 -0.7382133381123643
3820 -2.255512138541633 -0.7197138417343169 0.9032935943048863
1925 1.0795519865945042 1.8149131700503272 -0.46241937281515344
756 0.3630309909141464 -0.6194946777071323 0.08711078356222936
1452 0.5901988178107213 -0.5621917771022779 -0.9155480330156375
2228 -1.167098859720727 0.029577367035589733 -1.7008124623072474
1238 1.5381984132091686 1.32742314224716 -0.31486929449807927
636 0.1824425783075659 -0.8224652768726305 1.1550992336831418
1457 -1.1674592812228097 -0.5167081285089559 0.5313651930066765
2530 0.22492794413136566 0.1777180956240756 -0.6699948638761388
1580 -0.46880800748198553 -0.6435649706264551 0.7096351328342966
1658 0.8517281761829448 1.6430546967825428 0.7112509368951184
3093 -0.9145454722454068 1.824881550157861 -0.5671511082207465
435 -0.19467803790564464 -1.0226783514845523 0.5815672428061769
3556 3.056277775261362 0.3981358838298974 0.8511691036416519
3287 0.6171604494367017 -0.6520690330355042 0.3219390979725901
1117 -1.4035280404320298 1.2098019855793214 -0.8040018565427427
2426 -1.777070788537405 -0.556162654578992 0.06593814972030701
1370 0.07899770431348116 1.0126498132511899 1.436852682515971
2424 1.4755363395258283 0.058889359543311454 0.6270706859354144
728 0.15979951442816326 1.2294415791689708 0.5595212393237258
3806 0.6948984910582215 -0.6276413880620746 0.8858089659440839
78 0.3791250649668584 1.9924454653748302 -0.20766290755350392
1886 -0.352908502976595 -0.13431819271024345 0.07719928983984052
1330 -0.051599918691010924 -0.2409978988311414 -0.8752737083960589
993 -0.09016938539672023 0.09102671059497636 -0.07004413909092956
3399 -0.5160823683846443 1.2307490062809887 1.3562905250794002
3119 1.0632954694496328 -0.7236703187474172 -1.0400745370124893
3462 -2.005225206066093 -0.2855298334135019 0.11990568017287793
511 -1.0523673265471756 -0.14849527227053902 -1.1198735209693957
36 0.0790503881378303 0.31332427166482546 -0.9155205863841379
1820 1.1122424113992464 0.8090689979069976 0.5271292467758316
2375 0.7662545789308426 1.0236527476930466 -0.5109841621615804
2269 0.02514853678433311 -2.1753536003112717 -0.6660223979380647
3756 -1.4687092105801922 -1.4007372827969862 -0.7312365611407909
100 -0.7904602649544447 -0.6908815690830193 2.278552721817417
3768 -0.4164081515303293 -0.19967928178043626 -0.30602697150612623
3247 0.13889598522840405 -0.7226637096400431 -0.608276544741382
333 0.10875605998305143 2.4147691106213856 0.06812126362053432
336 0.18876161153709411 0.6874019817860222 1.5714741506500847
3385 -0.7366224697261813 0.36135018474401315 -1.0790691148785398
2290 -0.8566498380700626 0.6391270176741823 -0.5318410698429106
486 -0.3730934846402902 0.27144633856703365 0.22462876898786127
2913 0.9453863767442023 -2.0045736036772976 0.0849330044685297
3019 -1.2893167855631065 1.0121089261353997 -0.04798497071543489
734 0.6789842274431902 0.5582572385299565 -1.288645972956097
2079 0.37406829238058825 0.4306197929726737 -0.5091875645875076
1937 0.36177602851277574 0.5429979971893351 -1.7856688930568294
318 -0.2933043179573407 -0.5949378541840651 -0.3429364198136623
2616 0.6889899683517402 -1.0246518505092586 -0.6798035546703974
666 0.421761659049266 0.7017236720006397 -0.5436945351111411
2379 0.25648205327573925 0.7054476195437381 -0.6309291985600385
3871 -0.27167033605540253 0.2731914653807661 -0.3095748131864335
3404 0.7625384900709158 0.2215320515143547 -1.273795342956436
1147 0.5963481255315838 0.5423969252455559 1.1224821186714273
309 -0.8867146786591087 -0.7952894620415125 -1.66101511123393
1449 2.1109963095739706 1.5919813279560877 -0.686824595202111
3840 -1.6862077921448304 0.8351089204399099 -0.47697132595694186
3769 0.013754759001407624 0.9242563990755563 -0.3584932146577552
1540 0.27528468037642156 -0.19544801414178742 0.09336252293228406
400 -0.9894012759239912 0.5483182477527229 1.105297817898413
2278 -0.6069702152766214 -1.047360589533449 -1.43868298424623
1114 2.220800985511894 0.031005940408960018 -0.9966388458749241
2836 -0.2769774792519721 0.7289151320080919 0.04536824612021167
704 -0.3839780176846626 1.6011884258763294 -1.1785292772158498
2811 0.9817987868949761 0.7113155278349285 0.298928036386699
3922 0.42571255433979366 0.8159619129637034 0.039737708266543104
28 0.16426251847644602 0.6676352871937884 -0.40563717589882486
2169 -0.32211562633744584 0.4315983544997198 0.1959521597198565
3248 -0.0395235369859304 -0.9707842186728423 0.5874346696962053
3822 -1.089363840309283 1.0694512274768335 -0.7300356531830907
481 -0.9397052851804817 -0.020933210082737144 -3.3115486713483713
160 -0.18274103911558978 0.33770264436447717 -0.22665942819923518
2415 0.851504215839068 -1.3604038741266824 0.27059430318565453
2010 -0.7036554208291984 -0.5787968575505498 -1.4578740318379624
3161 0.04908128391311935 0.4060922679995094 -0.1767698346329171
3030 -2.3047585822567984 -0.5936079510277666 -0.5353746067626015
2316 0.5531344851100743 -0.01877770694828589 -0.3457278299293732
414 0.02485996278330768 -1.1361574176050135 -0.03559078783642088
2954 0.006777343683192367 -0.44126404617134346 -1.0367232658322727
1545 0.6192093961676163 1.8931191864494692 -1.5135199271080246
2488 -0.6133404022126083 1.3100164091325428 1.2128768000773036
3267 -0.1665435055478466 -0.04964594974519881 -0.8705651670715951
3057 -2.0937164742495504 -0.8686650565079866 2.159774707663623
3470 -0.32920315101721986 -0.11547647952112644 -0.5684172536484855
381 -0.6974711613628601 -0.1280033628529462 1.1870438998815789
575 -0.14681655666367624 0.8159767507626652 -0.7924258471426088
2212 1.1189729533744122 0.7844670063192172 -0.7235603072679779
769 -0.3047681647558994 -0.7197756570732334 1.9952219233196467
125 -0.10159139822444163 -0.40791027041389316 -0.23630578267701874
1342 -0.19815912220573323 0.5099558867839773 -1.0956301259179826
2004 -0.9344533232956526 -0.15190777458416121 1.0762033700670588
2601 -0.22626958367728928 -0.41537200779944605 -0.9218620884214015
2991 0.6201245865282305 -0.22454417753414813 -0.09108949320049461
1822 1.3224272358675582 -0.37676163745997887 0.3927261178172812
377 0.14247492104957735 -0.7690326706291781 -0.9903920023009929
1224 -1.0417661073124167 -0.3982271999392826 -0.2706443133823377
2220 -0.9601737149544589 0.13720806042112493 -0.4229374721201885
771 1.6031179225578116 1.5034877242425342 -0.7584927541990061
3134 -0.7522424139066802 -0.5171604854748273 0.15669138302995533
621 -0.3691811077830586 -0.275683563830043 -0.5310335344143604
362 -0.674847699813399 0.08838244272642537 -1.2009049891045658
623 -2.1294681306386485 -1.2945288073194288 0.21472100847467065
1789 -0.3540809819725454 -0.641371145282853 -0.18054906974921978
2298 -1.104629640283935 1.8559520863527565 0.7727557675551174
954 0.3002428896655865 1.204468379211084 -1.0738124811254737
2378 1.2926194150103858 -1.1641000120214668 0.4503470321787994
3925 1.1592611652213605 0.6463893288908943 -0.12142317556800863
3749 -0.4126375052176704 -1.2047155143115642 -0.2418946972185736
3729 -0.33351614746695996 -0.459971241005017 0.4965668296108729
1810 -1.0226564317699023 0.6605406060879307 -1.8994029779473993
1007 -0.3799879587490387 -0.3890660101977379 -0.5004224307326794
3572 0.015493853958108487 0.7411504771232892 0.4033576773705164
1424 -1.6415552982758759 -1.4795073998356865 -1.1622585179810223
349 0.6242467398585854 -0.5559865990951188 -1.7296743832240984
380 -0.47401572801018554 -0.4736618664053325 -1.3571477839215216
3298 -0.3277557508704071 -1.7042938878721359 -0.3867060487274071
2301 0.8168703651820222 -1.246851634660929 1.2293489259905122
219 -2.2117146315292957 0.4353315255922419 -0.5071386658464275
449 0.2286197330127088 -0.4631703964241866 0.5220916179293656
1714 1.073888424306635 0.7687137790140549 1.1940766762528676
2838 -0.5408232555461984 -0.2575627324760146 1.7918124286217796
866 -1.1840149197948595 0.03687114218040692 0.36262052770645703
1243 0.9403581654295199 -0.4488850278653648 -1.0518642996534526
3196 -0.44623084379876454 -0.4125792634691584 0.29963660265568715
174 -0.10389300718212721 0.41655337575364887 -0.015749080404521335
1133 -0.2020566211976358 0.9342418170364188 -1.0386496453723124
947 0.7415463060428583 -0.7004828500676553 1.2613908311875388
3380 -0.21633109160733904 -0.4752230803817438 -0.16332148181167164
1101 0.718366679776505 0.7015539088553563 0.4227711531762403
155 1.5434166209833933 0.38394893034877076 -0.8277299019253873
3448 -0.8453398098668505 -0.22586893720122284 0.9816598543202856
385 -1.3689970314529487 0.9913051082691472 0.192570114696783
1397 0.07547673058817583 0.4114449140171509 0.2819329769273725
2088 -0.00897159357125907 0.30234425375301444 1.661740413137182
3694 0.7753339284223877 -0.7126940459465864 -1.6779630014439573
3068 0.15745269056338276 -0.7422449921878126 0.6184349054738502
3224 -0.18472008270950083 -0.23654179153949512 0.9380939163934292
3003 -0.9719522479391159 -0.4539004885632089 -2.033860306003985
2422 0.3416244306449086 0.23745392418824152 -1.516246405062255
35 -0.9372676342199744 0.7074655891138204 -3.077834818061204
2692 -1.7319303220016178 0.7347995219726219 0.5152238755507413
142 -1.9371506281868816 -0.9497455163312143 0.7777608468304541
1119 -0.9365774478745994 -0.10419556457015379 -0.21810648801586416
2767 0.5098364563338225 -0.43943458047390355 0.7153282469016825
491 1.2400750149639226 0.0920742924832125 2.1952199652256104
3904 -0.3012266211198771 1.0357568345197692 -0.532404283367213
88 -0.31525743327706585 -0.4097677621362448 0.33648734830951743
2485 -0.8064164522358833 0.4699532434149018 0.10815337370300561
1319 -0.3086581129987217 0.19627761816169437 0.25699322340476716
3099 0.11575541984749603 1.3633633356539423 -0.19937679111420092
984 0.6410480573083492 1.197528841476103 -0.11446864836711056
559 -1.0103051468864173 -0.36676258495687203 0.6232155061809775
3677 0.11057977283964708 -0.7753324315243784 -0.5819188956736123
2704 0.850311285674222 1.8175609427143535 -0.5106385781945472
1431 -0.05058369149833696 0.3961246117609479 0.6517049802375614
1456 -0.7125079593725746 3.173117567005626 0.4576105533139755
3999 1.154688728678189 -1.6940815885975684 -2.3133201127283662
2227 1.6562580601732557 0.7572155691797693 1.2992873184629619
3183 1.1636608689832364 -1.0603671336107703 -0.7511131936522862
935 -0.71555076676455 -0.8611307484717027 -2.003665125619965
2352 -1.0310756178277007 -0.2655078878477992 -0.8249323861569768
3304 -0.47082972259679334 -1.465956610770316 0.48843174399550954
1258 -0.8786878592190525 0.13506002253099014 0.3811837074886253
2349 0.3820554916296017 -1.1514922246043713 -0.9527725215867188
2747 0.8321146226053987 0.09869042875296563 1.52293022124312
2340 -1.676943284546649 0.6768688875296272 1.2857636484604567
2074 -2.3506018256043473 0.13986202947242332 0.790164090549705
3846 -1.1534138076329825 1.062061883446605 1.047330368363507
3845 0.07226276052851713 1.437637356653489 -1.1953462552416945
1485 -0.9778430603536075 -0.48578161159090927 -0.08812348267340141
1008 0.8220950196767294 -0.35122732944180957 0.24728384512430499
3887 0.778325217177179 2.0544975271514243 1.003992188837017
1815 -2.751775361281822 2.8087391299785556 0.3728157698160724
2707 0.22906813926512073 -1.7293552904467813 -0.15048002823838494
2953 1.2822098097791779 -0.9033721035122277 0.6099704179873529
2934 0.8917963316262864 -1.6951239906576778 -0.15723373912314548
1276 -0.1809402297668287 0.7680983871896693 -0.20487338378494743
1441 0.12571841171100398 2.247565544144971 0.2273126173455887
3955 1.2399961073237589 -1.4603678302323368 0.08742726239153777
3796 -1.1286013449193044 -1.5542040834622286 -1.678934080635944
1671 1.075584099329631 -0.7910965879028281 1.0291653067996196
2259 2.0990928525356116 -1.1997042746316706 -1.4696105560727248
3995 1.9645483949849942 -1.6142860482277932 0.01392506199792943
828 -1.347205300071458 0.5503228410139854 0.5487596227736814
1744 -1.1261758756414941 -1.2493506800629366 0.7900892428382329
2179 -0.7894286287533938 0.3502430860042867 0.13524699975716842
2500 0.2689071534394599 -2.540513273339003 -0.43726956545656126
4000 0.5553126604276468 -0.6471525605776143 -0.6837634777738567
2356 -1.3792428928820004 -0.31701848100383845 1.2479233552829907
2514 0.0438655080687084 -0.09393130651175376 -0.434425283056345
3061 -0.9567746720282031 1.343333998721166 0.2086812389408883
496 -0.5174895119760095 -0.19568705716212978 -0.9361738569947041
3025 0.2855182464030583 -0.31839814957368784 1.050121977740928
2432 1.056268966214443 0.5166425592381205 0.377375349948326
11 -0.3541071760087135 0.7754879872447937 0.6213840099862598
804 0.8602639371305477 2.0851580104802943 0.5410012160072999
3732 -0.005101039808933491 0.6393107234403974 0.40465648506963786
222 0.12972832107458482 -0.8552987603762864 1.2791470822361948
243 -1.1457155293181167 -0.7668789613666391 -0.9570195067070785
248 -0.7129851352972382 -0.05171738812673572 -0.41557101974794886
3956 0.19215831487964316 -0.6814633102426694 -0.6138439919469207
949 -1.9676566826708821 1.5737975837695921 -0.42096903925679613
933 1.0281952163470653 0.6455303808110909 0.9317666122377826
1737 -1.0041876188184946 -0.2084657325142442 -0.37441832789199225
550 0.08269523365017184 -1.8386250228700027 0.3891629347663271
422 -1.620623123070815 -0.9109970736463794 -0.16526045576915732
202 -0.7880546089126734 -0.6475768397141395 0.7608535381248165
722 0.3762393636971088 -1.0471569248214703 0.008031361232351354
2784 0.7793152465348435 0.21750242813410878 -0.05168285531668189
2038 0.0633382803271648 -1.87637738158015 0.7211552951410827
2363 -0.04523993535166025 1.0359060677508927 0.9501995790085478
369 0.7279508000460541 -0.15136401729731447 0.3760204936510835
573 -0.13564902110838298 1.5321494282226118 -0.20913557512506759
1364 -0.4641261049380055 1.3623628008196704 -1.1769485201913457
2305 -0.9704710796897952 1.535576698946721 -1.8486095947762062
1693 -0.536493442880035 -1.0818587984128287 -0.6548520389205923
2086 1.0117559516860921 -1.3609780251907369 0.6030634603778041
3199 -0.6730672719029619 0.22933474354245809 -0.03601121517936068
3388 1.7239507461020467 -0.7936501795746336 -0.8951479738325693
328 0.21699273310196604 0.5347443580079735 -1.2824112768949676
3280 0.4744931535140868 -2.416001281642999 0.6737793820149592
3259 -0.1839089440125922 0.0066748427221270164 -1.6411190689058783
402 0.3891571048856862 0.9234389873334445 -0.5417467624974992
1174 0.28547567010588065 0.06603184374334772 -0.7925932827226987
2595 -0.5802060481395211 0.6417625196529965 -0.3010035647699049
3137 0.6186712144900217 -0.8449000402499811 1.4770744250899703
2563 -1.089923248266588 0.9990379453731218 0.00827080708969364
1470 -0.04309527006651884 -0.7802966153116758 -0.2124693728510665
3934 -0.8092134088900919 0.017054876477032185 0.6361544007754114
955 -0.17139866588266456 1.8431031092953363 0.08923128061951366
1988 0.10357687556164016 0.6004775236960536 1.1817318352506507
1326 -1.471852553671455 0.8978073608128594 -1.1315324857753082
3766 0.3450156962100533 0.7200008683465378 0.4913434808881354
1761 -0.45654248024839744 -0.9611573967141607 0.8988370059032443
3260 -0.15634715535355126 0.7647869321677868 -0.18431587014526704
2676 1.7990299099232339 -1.3112918446786381 0.8751248623010648
1488 -1.3149588402313008 -1.3828644645432198 -1.1528700620181438
3890 1.3924016208217784 -0.3651704558669353 1.0429621508065694
1650 0.6318471536897002 0.4534163376642905 0.3920366703006379
966 -1.337714341886105 -0.15099330140508582 -0.09609877503600349
1734 0.096656891459023 -0.10764012777766217 0.4278352789007864
726 -0.4237489190185896 1.561622446973402 0.40105619027872
3281 -1.5302934029286444 1.1519712050199011 -0.2654559531387859
3023 0.5239267346664475 -1.0927226861966848 -0.08153277619495017
3365 0.9461996885710421 -1.112992305492074 -0.6442507512191207
1245 -1.5769677825710628 -0.3892790427347074 -1.3872355062206292
2585 -0.8909765365334237 1.114551872714361 -0.6887259899689743
3948 0.2173162337203927 0.2510369593929546 -0.907958807729849
3391 -0.7227623103052597 -0.787741525278946 0.35445531366313593
214 -0.2923024905437796 0.9490732424095122 1.245669633295846
1228 0.7035009486889628 -1.0123026979820715 -1.0899931568907788
2195 0.1177352720966237 -0.045318124841885146 -0.9638033194685219
1773 0.6661927396460476 0.05282972694306097 0.5609424182954872
1934 1.3701152073116867 1.2860144486671135 0.052396454208155814
1080 1.172489288560698 -1.0871489455317178 -0.09270673487386179
735 -0.2926533498436423 1.6077081062427026 -1.4508028204125574
2532 1.5773983632923538 -0.5588041350250884 -0.47776779540833036
792 0.3431934443634706 1.559362012422561 0.18434779004887894
397 -0.16495906538340505 0.40444362030353065 1.9415457584564613
1104 -0.3152306948717434 0.07589022244026909 -0.05193205304275531
784 -1.1388608390960195 -0.9599749110189701 -0.8107042512651066
1215 1.8057588147705894 -0.2243553594698555 1.4611819156482246
3778 0.7622915827215611 0.7718240566929523 -0.8320455852471802
1355 0.16424267349860797 -0.7289259409366322 1.5873958912923496
1335 1.1987622811224523 2.1391333543015665 0.2231978239657542
3895 -0.14526833037806935 -0.21010625142577924 0.5056385062647802
905 -1.184739983606752 0.4207541436717032 -0.2774150062188801
1930 -0.9305840688178532 -0.3267126151817604 -0.3925668888500273
1936 0.20956750492342813 -1.2069196981176518 -0.44577849166710687
3476 2.3637741272458985 -0.8970736697121858 0.9968698971713053
881 1.4288212578192532 -1.0088453880766985 -0.4499567286807897
2280 -0.17117882756706357 -0.16751986039739672 0.31158709793477235
520 0.7615745105296878 2.0531989389781993 -1.1837422062887493
2009 0.19616570022501212 0.952554891990124 -2.2518021603983933
1115 0.1520784531201023 -1.160691189008339 -1.0066373328592217
2973 -0.7166999641381171 1.5970266612662942 1.2809691079440553
1191 0.6271343664970882 -0.7974113534790315 -1.0636707058448938
2958 0.8554144363962365 -0.12749123747123692 -0.29837317542582165
425 0.26589023141902657 -2.064173238765961 -2.25930070394564
3503 -0.21416102709974594 1.5627304068727939 0.38855280663528446
1426 0.9340202810390437 -0.4673416773398593 -1.2305824576847655
2273 0.9078576688023985 0.6610148509440509 -0.196966843767942
3632 0.6208526585128501 1.1273607630972968 0.7337642963301545
2841 0.015429382858247548 0.4368277239474219 0.0033967176443201615
201 -1.0931991442863915 1.1582174972333525 0.23534037784658365
2680 0.08160869850517151 -0.618371283641671 -0.24665126061659048
2071 -1.5473160966332862 1.7703844467014764 -0.30584461428695525
354 1.8890115728352148 -0.3101190483524589 -1.525966512696405
2937 2.4049583851909926 1.0264269995453834 -0.6713794291439006
1014 -1.0094753565668177 -2.4313380922624224 -0.5462257069023679
3588 -1.2388556571151128 2.7082866152938996 -0.9481425611964434
2313 0.5308045260010124 -0.29045008435569125 -1.2623358485539133
1476 -1.2996215994601246 -0.42137473344420606 0.8015589871179474
1111 -1.6213311390287246 1.8121491839064774 2.525960280316523
795 0.6868725012930194 -1.9360165009382826 -0.9384679484394242
3653 -0.9558307672749752 1.291738956943045 -0.11055393495706002
2727 0.7387915104098991 1.203455562201681 0.13256918623868583
1833 -0.5094861171024768 0.041807559190957556 -0.13093453508414257
3737 -0.40656022023083205 0.009035840811675492 1.1939634622566522
3197 -0.14542397250348466 -0.2519872641204062 -0.6417065200813736
895 -1.0352334442810471 2.033142627057367 -0.4117660880300666
2150 1.068813713239394 -1.160845306315388 0.24961734566183186
1866 1.1852653939312314 0.18170198674900664 0.9019601757408757
3442 -0.8887021445875813 -0.05772458335044691 0.7338313995375548
1257 1.6360598970639464 -1.5523005962343943 1.303929127822669
641 1.2206751577926453 0.40504300946402083 0.8570582527676948
2473 -3.0170404631598915 0.14830332719371306 0.637095592195398
143 -1.291325185471059 1.1067273014159578 -0.4446100891746908
3207 -2.3773087305835436 -0.4177946568088605 1.3914795946971428
2547 -0.27862261367807595 0.6191691464551353 -0.8354680247613278
3703 0.710604321634476 0.9905675559387255 -0.9390929723492343
667 1.0114193334156172 -0.4816098367798744 1.3154767772264084
44 -0.4810894457109308 1.0776722425966323 -1.4137502880011927
1310 1.0639383002472043 -0.2658818982602568 0.44799871647825185
923 -1.487710027728808 0.7248288542173764 1.1563264378561111
1783 -0.8838879123983722 0.3635423611442129 0.5137804835436155
3833 0.2639161850427864 0.269885670878218 -0.7107728828448869
790 1.5383770556037684 1.369037157614862 1.1790353619711789
963 1.8499825840211808 1.223259503302685 1.0905572949346498
811 -0.5817952186497019 1.8443876847047087 0.06579097704453978
522 0.7917958348284502 -0.08770512731898057 1.0811558426415362
3812 -0.013541800975761709 0.10095066618054688 1.172023231302718
390 0.5369836619703018 0.007895494774102316 0.5963965073189494
1340 -1.0156881160211706 0.5362252035514495 0.18126861415480094
2036 -2.8854294775433424 0.7069538233560901 0.6518660403108668
1659 -1.0739459232846669 -0.37140292879274833 -0.47847786949972243
1232 1.5771896248968202 0.5117186427062071 0.2732706371256262
3398 -0.898332959066065 0.8872821096978302 -0.5145502356896353
3133 1.2923162642268722 1.0359640279345863 1.3960797764140833
2962 -0.6705359898456014 0.7462771880733581 -0.8036982802513262
655 1.104805247789762 0.11871091003458104 -0.5035136391984658
1377 -0.8179456622275416 -0.8534978151287422 -1.4443839347711596
2844 0.5313823365896777 0.6262312350811018 -1.2481771629884788
3488 -1.3615198677137381 -0.5118677553317287 -0.026884162110191977
3910 -2.311780820178699 -0.1780750635269563 1.6191973428350943
3884 -0.45598239911290694 0.04168051949763381 0.5941194895152051
3927 0.32596573451403404 1.381180234375897 0.3765410741469121
1504 1.645676307208367 0.02528937381329344 0.42410261585180675
1862 -0.10860709843130197 -1.1269514035965147 0.8161263613103952
3150 0.2939904372744403 -1.7194553086410986 0.8126098513780664
2289 0.5878920546898029 -0.15051111776814063 -0.6537417428138972
1954 1.1225177762069332 -0.8034116359087228 1.9614441830251153
772 -0.007995164260226685 -0.897445397446808 -1.0053256177586538
1246 0.4532081309858548 -0.794345495740294 0.39052917606080717
1316 1.4259623420804735 1.7948388538863218 0.5403519456913577
2505 0.7861264966966203 -0.07402506396916954 0.0357799548815717
940 0.8303166438784575 1.1854240459128036 0.9154906500250773
3685 -0.39427837191123666 -0.21957011270477453 -0.18196477305352296
2197 -1.1021156505812353 1.0215306908194783 0.9072908854152784
1669 -0.40432666476612844 0.5271002902183092 -1.8795676454734036
3505 -1.8588392048880609 -1.6504554833649157 -1.6583581714559648
1420 -0.6658197207796223 1.0574004552332574 -1.213188624444833
1489 0.03840386239841954 -0.9772299293057237 -0.300085670071528
2511 0.991808383435165 -0.34743240773569983 0.08541544495527774
802 0.6864507797359128 -1.0202895268211403 0.7622564348622108
3525 -1.5015653212766182 -0.8028444058972513 0.9118264366311143
526 -0.8381722032941066 -0.2910652713991731 -0.4979458854822308
2965 -0.10293326998340696 -1.210751074783316 0.180134372797955
2874 0.32241767732753057 -0.541809093381277 -0.8444940268106444
1437 1.86274466729393 -2.445694657429083 -2.1236693380048792
19 -0.1874649205530735 -0.20867031480449666 -1.0837460218011066
1139 -0.8261335033169139 0.5100205851441326 0.6771253448337088
1984 0.6776519013200919 -0.5026275237135707 -0.3412446893671724
1521 0.2816540373722204 -1.3240148397564206 -0.884011451406349
1109 0.8683439891764608 -0.7155408206780904 -0.9572328522487206
922 0.6201467575686991 0.5708747546860222 -0.35308273244267013
839 0.8648014648753316 -0.7893564101610584 -1.2686674926561927
1341 0.3044890521887358 1.3358751894742167 1.4848826693009778
1559 -1.8307739725538226 1.639490401773388 -1.3351065133144107
361 -0.00736875739772199 -0.6587278672947451 -1.5994621584213784
712 0.04785308118324245 1.3359514070476894 -0.14922006875947563
3741 -2.56461663964149 0.5341716882930286 -0.474360008081724
3252 0.26480270823595903 -0.09818203961657532 -0.9405902266545746
3250 -0.3300691091405937 0.299835938645523 0.757208924129366
2394 -0.6148336959089888 1.1198415007805695 0.5029457632226428
1194 -0.1030094224449092 1.1399597738340514 1.2179665236538038
1365 0.7960146150805658 -0.8869046749163405 -0.8589877324488843
1887 -0.028321417149246672 -0.2646668135445878 0.5105082185930772
3407 -0.23454933455419996 -1.1483119210438262 0.7589157787304068
448 0.5454010527772118 -1.4419349383521702 -1.0571412248993937
1427 0.8957998148956621 -0.6273585630033653 -0.8793975509528631
1193 0.5470098635664697 0.9066774563504335 0.8932091398633998
1231 -0.44806080123475 -1.3474482713714389 0.32596246724677364
2182 -0.9243569253387612 -0.9525002475862578 0.24723670913542226
3228 -0.1462014580824306 0.6285852857456851 -0.30447466216862984
1519 0.5753482919324964 -1.1999060897140719 1.3442320100703695
2258 -1.660881005701478 -0.7122098577585761 1.6533313403322376
1679 -1.1500028887998281 0.31893177925268074 -0.7199723324222995
1241 -0.6434954576783115 -1.2909014327364758 -1.7112807764246745
2428 -0.2617877558796239 -0.9614905895317516 -1.0838064707493518
813 1.1865802328741493 0.4558091108399558 -0.9504865532833848
3347 -1.1091332201206368 0.03510052515970692 -0.38911727741429386
3145 -0.7721932205858865 1.1316810579015495 -0.27544112627155576
1398 -1.2486748950591517 0.6897956751199906 -0.36366627830964754
2436 0.9889139380544186 1.187372656361917 0.5338097430034631
133 -1.2531349273927646 -0.0622440398727388 -0.1702723752155262
64 -0.7691461371623519 0.43557219073613507 1.6133258358381615
2723 0.23992183678740142 -0.2502975119793301 0.08509729949628363
1632 -0.5849377332208131 -0.03943900273620899 -0.5174986670540097
34 -0.5300499123462605 1.0469514158044182 -0.18049707755954653
2728 1.0791149556058994 -0.12452193054718805 0.7580526981484035
1199 0.5855755302408765 -0.5658373755198183 0.6281358471469254
3976 0.15999425974857476 2.5062452243516433 0.8039823194706188
921 1.8556562397556564 -0.31003974041039134 0.35005371328739077
1852 -2.203030181272149 1.0002164525241966 0.03574583142543839
2237 1.21605885129319 -3.2299243632226897 1.1433850508529027
2057 0.9096544081304401 -0.19286119271833288 1.5049735132241453
1165 0.2984784114792614 -0.8089759743909071 0.9789889726476886
401 0.6449186016843642 -0.11867574191104478 1.1470956145975495
1066 -1.7054591590297914 -1.629847523731986 -0.16352833534347244
1560 -1.688452264860863 2.1396123288190685 0.1510457387985803
2923 2.071868094166018 0.02556453270940887 0.6600945651766177
2634 -1.1940801484607682 0.2621079731152671 -1.1382432779603433
777 -0.5214605594624505 0.20959494965681105 0.27881604829340906
3276 -1.3595970532720587 1.8043399911883604 -0.289602019213811
2001 0.31944519692066753 -0.4060519288512004 -0.3472506018846186
1036 1.1809318019816997 -0.9230748959213484 -0.28589711094710196
17 -0.5373431453692437 -1.8918360504378773 0.3039921319543672
154 0.9112807705629343 -0.02671834706107667 0.2610304154165265
555 0.07740705796051797 0.9174776267446999 -0.6944381444710974
2125 -0.3310298486264433 0.9437008477497781 -1.9105276676445049
2592 1.5833249892612007 -1.0579530603748597 0.13539573388289944
2346 1.525829198598545 1.4379164900731887 -0.2913696215221345
463 -1.4222911094909436 0.737639801424401 -0.209316123444705
2835 -2.143341340824259 -0.5235740732262215 0.139874944685419
408 -1.1615856932255717 -0.4130425475961326 0.2907209497675087
615 -0.8344658457662578 0.5440532498308415 -0.7066768600625069
1705 1.2406953097339701 0.27107271464343974 -1.3562560344291186
1130 0.9879415866895356 -1.628449625699575 -0.9777244396633576
2612 -1.5232706315388012 -0.882040726816778 1.9251145394043527
3780 0.16285062071288475 -0.6674258567410822 0.3139235258594777
1252 1.4948448713144082 0.5918923742408814 -1.0084283647561771
859 -1.186680406634346 0.8693445045701483 -1.249382771435617
1626 -1.069126623876687 -0.1765478439002166 -0.679936598006217
1860 -1.114666360238931 -0.710366881983941 -0.3859029090635125
129 -0.8532946829962599 0.6173484087205832 1.4783835369508365
465 -1.4045805476975026 -1.322778498830727 -0.3693628529980986
3524 -0.41412138797571474 0.25519223753272535 0.04648505312269933
2248 -0.023214473291116526 1.4402808309318 1.4307117407821162
3569 -0.18328533369226313 0.3262132263499295 0.7237948705185453
3011 -0.11586821630912177 -0.5303785375949129 0.24420255039889527
1356 0.46355022847137445 -0.5801487984338316 0.6836952864199932
301 1.0258776403271368 -0.2225854529888587 1.6240395371977108
1701 -2.418159445664962 1.5475208160551812 0.02921486760598676
3804 -0.20399702775443193 -0.07091290962528093 -1.048905081350972
1760 -0.22069963830308553 -1.0665496228688813 -0.8121936566276183
681 -0.4978610587780047 0.025929359809140365 0.4417191417043769
2637 -0.9998130243004179 1.5642621063612814 1.0169687049215042
2293 -0.4997322157196525 -1.2718418197049841 1.3690167203501706
3942 1.1846498419559015 1.6214190504758816 0.38937675208335487
2416 -1.2250021951846755 0.25609243542943483 2.1736626116338056
1842 0.1282852638332925 -0.5495476329790496 -1.228150121144302
3818 1.7724217882808198 -0.22902355965160828 0.7157191205901876
2498 -1.691791631623678 0.2828344081941817 1.2976020367649708
2048 0.01972716358532254 -1.1803819789578804 -0.8627140771448095
2607 -0.5362518705117952 1.4812243978022765 -0.3449879505483323
1907 0.10529102808302157 -0.7616281102528092 0.47488794118039834
3060 -0.5134048617009891 0.49163002138906153 -1.9035940849273727
1163 1.4537388037302612 0.19556156305650702 -1.5338539445758608
3696 -0.049045714280701154 1.8015685121344895 -0.506169846903581
3807 0.6032867953927215 0.46663081597003436 1.2852313087842528
118 1.3388246382112592 0.25120548522355807 0.41954657489931324
3393 -0.5140759996701627 2.9385365298690864 -3.7662674495704143
1392 1.3873876061167734 -0.14824660972415038 1.2543574466632619
2993 0.5365691460871135 0.1392040855711447 -0.8628635889064736
2354 -2.2775277837984373 0.6759379471590193 -0.2496402231446801
501 1.8073599959870137 0.04067141751105894 0.7001760586480607
77 1.2500217151076694 -0.40301586384262406 0.7990131514200088
3944 -0.00938601603580708 -0.1501160446609043 -0.6861556156014297
2172 0.9172218004472599 -1.3426387543004326 -1.16325346108449
1522 -0.4305800110022407 2.311283498984439 -0.7747312566269262
1304 -0.8697898138631095 -0.6466176919631897 0.959480534345582
197 -1.332132075590755 0.3504227887911214 -0.5051510043418721
904 0.5174849810436954 0.8855127073584671 -1.44242699515986
3182 -0.6054437365266921 -1.2079836696687731 0.6095421843013307
2342 -0.00969731702555902 0.00059411844127211 0.357851859595808
850 -0.43192221332372377 -1.5332106439485884 -1.0290104941371898
2420 -0.363931175726573 0.47665117289335934 -0.7510102519436519
2817 -1.6196741472722536 1.324618459024453 -0.7844458438095797
2854 -1.6950729167540117 0.8545190654987789 -0.9757829562228388
897 -0.1260540140779428 1.490834807704207 1.0741069938584458
2644 -0.12881532981621382 -1.8126403120651189 -0.6348628096239858
1004 -1.5293856213873545 0.3805362196635693 0.18850539646065226
974 0.5538358482961995 -1.1328898585286644 1.06413408989807
57 -1.8796340715390973 0.6999576168002815 0.4706424710291875
1767 0.08498980182047575 -0.657619052808546 -0.15316753139619588
510 1.3726763984653072 1.0448821952989842 -0.4108031414717427
3506 0.8925043734507089 -0.9156309045473914 -2.0369263856803363
1509 1.0803181286561003 -1.0807858991156336 -0.009576988231362677
594 1.8189040174464142 1.3033291575763712 -0.005894617733845181
3679 -0.11330544146472998 0.1739687257465713 0.024874295065448318
3269 2.6044459575795216 0.6253448684902616 -0.043825068717531106
2263 1.9570434374344716 -0.8993763582828663 -0.014250829442460634
3447 0.9484710370600739 1.3817522401006206 -0.5337521836362793
3511 -1.5075331129188145 0.9533903915158642 0.1257167370785876
2894 -1.5001790451012027 -1.7678490926052486 0.6901926067627158
376 0.26113176486727063 -0.912617117569674 -0.7097161639735831
2523 1.422101276201796 0.9112086322234969 0.05060579804827177
3292 -0.9359766966307558 0.4871827538174047 0.19057755334725007
865 0.8948406466590063 0.2517410064848655 -0.715151649074947
101 0.5203931593503821 1.5716724101177557 2.901922251060358
1188 0.2925338579352859 -0.9327225650692411 -0.393429620364461
3824 0.4670169998939601 0.2788931985536971 -1.0086973020918326
1741 0.25158525659826453 0.5872662947449835 -0.5783532453038337
942 -0.3007501089415257 -0.783725122496942 -1.7614549542034432
2063 0.6686970910644277 1.1003459651507397 -0.6358766800265448
305 -1.3159847881297384 -0.2782578242917442 0.02546278045685017
1615 0.38129058892052914 0.4777143273526103 -1.1662362070759156
3866 -1.1379595925046242 0.9974052923455979 0.48333931374315386
3243 -0.5628190093398222 1.83474566000834 0.0818425120149287
2688 0.9936160476570268 -0.47112021188690206 0.2502903545088962
3177 0.9920041733331131 0.9246200216816192 -1.6267792188652725
1888 1.7122568031825913 0.5794359873733161 -0.8456972282602736
207 1.7878833192726251 2.079535602092797 -0.7979318115963874
1812 1.5913919649735846 -0.16865158859046975 0.7335700159481732
2208 1.0006012926115402 -1.7571998922929084 0.6025200723214698
2717 2.075444305266175 1.562254176852992 -0.5890221915308993
141 -0.197064942192271 -0.5025689985474004 0.22008972955263334
249 0.5520369324164327 -0.7437154194601254 -1.0032617722122468
3103 1.065975389155642 -0.7656785210712443 -1.0834305798295039
2216 0.2790209210191035 -1.4294699357564031 0.5666002817829237
3117 0.32118678392561756 0.7708329894411311 -0.4035476277288618
1089 -0.10430655166181936 0.8730878305507491 -1.9097534170106432
1435 -0.13310939760514304 0.2235606375182452 -1.3320368271157532
1752 0.05411212714165752 0.035355746635159294 0.5195023729239703
3847 0.3336745917367767 -1.4420944051850986 1.0796446778511621
3422 -0.4366117179516171 -1.3094188828869182 -0.5625885141995505
2355 0.7102885732912234 1.6157956929736272 -0.7349613057194911
1474 -1.9063092622309228 -0.08161492989030833 -1.2244409132672787
3179 -0.34711145061352233 -1.1447789126713719 -0.5591731614347415
3232 0.6887167134634801 -0.2595957605872491 -1.373387930982919
3138 0.1386469065216337 1.1830482068925248 -0.870493841542286
1566 -0.11159614785635087 0.2741239062237181 -1.0043257493580222
308 -0.27761195340591555 -0.515194301710393 -1.1295676654634843
283 0.5034363760426742 0.824396158144609 -1.0343524787503113
2819 1.9899191697879808 1.2525290768997033 0.8186283480638485
86 -0.12282037311659837 0.03949796350842549 0.8987722845908145
3367 0.8313147454546255 -0.5320792968252729 0.06483772861173155
2163 -0.3473977580270282 -0.9209128165387539 0.5805217036312512
454 -1.095632620210953 -1.6968664806406824 -1.02286360194497
3725 0.5455170725226434 0.21101215531842163 0.7925407826563637
499 1.3262142956375693 0.04440126502275534 0.48715199275872817
3693 -0.7659084543440483 0.34644397454440695 -0.09602293994660804
645 0.26766326022488346 0.9237996421500796 0.6927672057903562
2553 1.2877244796691303 2.700762593885855 -0.001752365948681635
1662 0.6776040590435889 0.756902400210644 -1.207472221616447
697 0.49114392412069546 0.13777705982427124 -0.3586728360182593
3008 -1.2895083400807144 1.352289827626766 0.16295130362458193
1220 1.2413876250756632 -0.9277908303920639 -1.678242205950967
1271 -0.3015256878451857 1.1275216809253925 -1.9315184798509224
3568 -0.5396856185433847 0.6889546415617752 0.32345635040201437
346 -0.11018756916549305 1.2370332872393555 0.6700866905320809
50 -0.2907455949314964 1.5593011322537227 -0.361118298895331
3233 -0.41515953459485944 1.453379048732545 0.41007745898892217
716 0.4341262373990369 1.1463851344188165 -0.4616989103188373
3454 2.0039417306775635 -0.7369139010402658 2.5499925459246238
617 -1.44944770242753 -0.8177589311397847 -0.10447385276991457
113 -2.0516203616667945 0.5900457500943628 0.11541295741759973
546 -1.1851044523832999 0.32584669830861523 -1.00500212787338
1882 -0.5184866238145515 -0.6718631110868138 -0.43079147187317673
3285 -0.20191984427201812 -0.43788983794940733 1.315574523638395
833 -0.25531515718645614 -0.5024524404589301 -0.9373192072270541
1022 0.09247325123750105 0.44912512304737023 -0.7583856806776541
275 -1.1887272725119398 -1.254834415028214 0.049276543397901905
5 -0.0009524014491699293 0.22569522995950375 -1.46148779735681
835 1.2725879704811478 1.461456459431221 -0.9758409070551441
1269 -0.2997066727294228 -0.5375174135770519 -0.1859215248676103
3309 -0.4659063347677454 -0.5574454421470548 0.17131156413239756
2247 2.4457167653630183 -0.9601844408142302 0.5085216537136158
997 -0.12003049300313284 -0.15421353418785844 0.8657859103607689
1840 -0.8012928120146583 -0.4188048055479727 0.18166335681856308
3727 1.887611583942521 2.2547396629500125 1.161062380994773
1442 0.7657444869923982 1.2318447785696311 0.7671660198378004
944 2.078458135552679 -0.8764640571836441 -0.19455874156966182
794 -0.37267990038214555 -0.9557173150841707 -0.37433985061432434
1832 -0.6084187010449621 -0.8485838999586177 1.216391557077227
1046 0.2399643054772855 0.5821710381271626 0.1687279335605508
9 0.7440448174732389 1.9051558998547353 0.08557378506118696
123 -2.0804506864844834 1.205814184693904 1.1079892239399636
545 0.22931955508010743 -0.12698212632429182 2.856354398909531
3295 0.19354265932556164 -0.20071585039306747 -0.4241162118637251
741 0.8907180516534666 -0.9873318369502206 -0.41261502739323813
315 -0.68440353074679 -1.348857610781855 -1.7594944310104168
3747 -0.48263807400624015 -0.16655905939094265 -0.47287177232439476
2455 0.49923623094642366 2.5293144426954397 0.5246669960413057
2022 0.4077376131336472 2.4942268423772975 -0.34159103524540957
1910 -0.2639456464458409 0.31678482167109334 0.40391619386066785
2117 0.8272526014905653 0.6363290149510581 -1.0525322980534215
3592 -1.130234131605484 0.6520489457468616 0.24602978385883956
3108 -0.4583004576544167 2.0229225917996922 0.7802585871286529
3555 -0.721775662190441 -2.0403720414897215 0.020426706894047478
902 1.37935719305884 0.7134940687543257 0.9235205422754447
2084 -0.35134850699096054 0.4374310317632277 -0.11137474995455263
2892 -0.6287339827663749 -0.9867641080410993 -0.35135627855824203
1090 0.4398709016301283 -0.8742988037167446 1.2674147597511605
2476 0.6463205987958279 0.21860249053702072 -0.5014751279361915
2483 1.4716821551077341 -0.5346035035397871 0.2274316240666544
3439 -1.0457189806937965 -0.7720956251513028 -0.4148543256926107
2388 0.2408705505955576 1.1127829905567035 0.7336091340191911
2970 -0.22413119341414303 0.053794060281965796 0.1386013999216114
1867 0.8138887748820929 1.020841505290755 -0.9940628092075241
783 0.669635935476935 0.7163901004574961 0.34878647278634034
2708 1.4896900982874628 -1.338723492753502 0.6880117787599428
3473 1.0217374378392405 -0.8694417598920277 -1.4931584002814777
3528 -0.6429814048835414 0.8858112704796451 1.729186485676535
3064 0.8654996767000372 -0.4929410995498659 1.2170810323765169
1131 -1.82969234445206 0.35374838826613325 -0.7741203149295417
638 0.11217301958021289 -0.32868985439507553 0.4206080677201051
1801 -0.9127001042786436 0.4671263420833643 1.7135726743920845
267 0.04080700559326431 0.7881165220723227 -0.10872969351690233
2089 -1.503141038031878 -0.368710007319834 0.8846522118720431
1813 1.5251691738482578 0.2120259609212036 -0.2051666417798327
106 0.52776448261956 0.023062664423907028 1.5350155434740727
40 -0.7832639439917823 0.24363869630359405 -0.5752894158599696
116 -0.8967592658626723 1.1664251749418253 0.4199303089968928
1236 -2.35884317848132 1.0136266730298953 -1.790019653335918
2219 1.8756319688255907 -2.0181998289968712 -1.9048106739960156
791 0.09996931597916674 0.46966237742758027 0.52122103812963
2938 1.0439699511847573 -1.300148006207612 -0.20973360595183263
1918 -0.36472700544232967 0.20189443300220167 -1.0513042033811377
2252 -0.7610362046481031 0.6213301626578357 -0.5659041352384067
3355 0.33105835931898664 -0.5715235982499627 0.8638731542106272
2922 -0.22687741380144685 0.7133281300602397 -0.3631806664378191
1878 0.6748807418109279 -1.7616404876763234 -1.8953375709700795
103 0.9972257961655396 0.8472758483104555 0.6507539819172612
2364 -1.2021345050752712 0.7884212171324463 1.4381083995331814
2026 -1.089931038376864 1.1082013555371746 -1.7484997646653933
945 -0.5281981101143363 0.3172665102238988 -2.5214657282282125
3212 -1.009930410767961 -0.4825772199494011 0.13310326818412302
1473 -0.2971414587762368 0.0673525261043335 0.26456772540018425
2127 1.2202921993402014 1.2156477343979235 -0.030183972017508096
2656 -1.4031626684711052 -1.1141747177893009 1.4056109293818282
2652 0.2619290803796059 -0.2884108681680521 0.2782036815198978
1148 0.5386859294459232 0.4565474559163191 -1.1246949188435715
3760 -0.26210113465545476 0.34547137532185884 -0.22486373210800775
3877 -0.49830889991193983 -0.09583879305419464 -0.20909418283707815
1483 0.4406994351620852 -0.6022175735582043 0.18506400297272826
2188 -0.8483191200939163 0.19252585574152717 -0.7078021400399405
3560 -0.15077477829381788 0.8310323966854927 -0.477658893019392
2919 0.8781260376845829 -0.5770169902661603 0.43128779374316994
1595 -2.1298966506568013 -1.2132208722738274 -0.34883729334784574
1411 1.4999222646200403 1.1718557202439734 -0.5047750867947922
304 -0.49263069284410876 -0.21111571298450107 -0.982825958980542
170 0.004549894264599135 0.8058699585178669 -1.3699221273120452
3316 -0.12724944129095417 0.18112995322857012 0.20787987774203828
1324 0.514028126191429 -0.5580121959246401 -0.6140083647561341
3836 -0.8203074157399781 -1.0249136194531068 -0.03142867540865189
3071 -0.8795750275452895 -1.214958777076443 0.4025704840945096
270 2.30620103822256 0.689775684625729 -1.1066661321585174
2722 -2.23616400133113 0.18202507912870536 -1.6172408359719095
1961 0.7631209386186624 0.4340371000139706 -0.20156055838126158
2353 -1.4112759099527505 0.3645759817514284 0.6801672354659261
2768 -1.8734617054557807 -1.1606557926094845 0.5264741750276427
1895 -0.20246858052944075 -0.5777490775169875 0.14195674231672553
2544 -0.40489735540118227 -1.517815717604798 -1.1761465059351246
2855 1.6238730074581547 -0.2734095278127169 1.1181160154351673
2590 0.4128903764244475 1.2604908899599876 -0.35302817997901365
434 -0.7167960865577758 -1.0081040278485927 0.4949659603470203
2756 -0.7209893771668177 0.07523518669225997 0.44437847490832516
1973 1.1768334653151395 -1.5359923183039688 -1.7689360009811028
24 0.2894699646583067 -0.6826778664203678 1.148733933664992
3463 0.17127990647224445 0.02912127469651829 -0.16034410767470242
3983 0.5880033084721026 -0.1466618205683283 0.47545785819795117
3984 -1.715009551018909 -0.7671584805755631 -0.44912619523526265
3153 -0.9191497497576978 1.2744149629789296 1.10444643532276
1248 -1.3489747929682623 -1.6696805140556878 -1.4748508219795864
3643 1.139281909187254 -0.7531080697150343 -0.4257001471063536
1333 -1.9982854661622143 -0.23065050411048338 -0.5947884359469879
3074 0.8744276807523914 0.7625352152665579 -0.701301023824973
1282 -1.1927582465592124 0.11254361921612027 0.0028318023469124163
3296 1.4227885180500979 0.18561510167083992 0.18370519359117984
847 -0.293955126814156 -0.987081145841803 -0.42547267359808516
3545 -1.2248751019430753 2.091219979923203 0.6511865078092651
1759 0.09852956846916147 -0.1559631652411938 -0.8857886456694358
3356 -2.2360094708978737 1.107100990568385 0.1333380342696365
1897 1.949394232707034 0.973985930602316 -0.30629844096011116
1234 -0.48515704137894194 1.3274889418896385 -2.9893538622676714
2732 -0.45436344312395427 -0.769778533255435 0.1720523493452148
102 -0.8389291375263576 -0.002994800847289603 0.7154125716371462
3085 -1.3263953174295882 2.0781610969534574 -1.1826201993531555
356 0.6958370165981822 -0.911351328518425 -1.6444899690331598
1876 1.341880457195417 -0.49224093626939414 0.11655560868296934
1213 0.9878799716543873 -0.8088116382012033 -1.0591346918099418
1336 0.4609101053022665 1.6442227562511489 -0.16518529619401276
1353 0.18201356338803856 0.30108505664891105 0.10384822486069172
1778 0.6938985184098984 1.6740502622479771 0.5793122990522155
1197 0.5673343841473605 0.9415527713086628 0.19059741687211118
1538 0.4271130585883007 -0.9077136198251635 0.06178374043088641
1451 -0.8119482720846973 -1.6037494123301392 0.5528553831662134
858 -0.8321646624784403 -0.6254766132268264 0.7507470044065081
884 0.3398119653903962 -0.4689890126356324 0.672041684755488
753 -0.6034873802943101 -0.7311070305866683 0.5703669827938478
686 1.4594563634048099 -1.2299517574507477 -0.4588424720779154
493 0.297760185375993 -0.5434041400382124 -1.4463485673932177
1516 0.9916982175535588 1.194824956018662 -0.7600715434733877
2789 0.25321933962526344 0.9669663533766484 0.10090983700111837
3046 0.9481022783033111 -0.5896337091196229 -0.9276122320039315
861 0.11397746448783087 -1.6376589450819736 1.945959830158232
2135 0.5030948265419675 -0.5583455196316369 -0.7200218396426739
3945 -1.2969452239046015 -0.034557259819828476 -0.6778237588141732
3735 0.19383090175587933 -0.6253372059928693 0.019928883172336223
3905 2.208562860179966 1.2806349477991879 -0.31857127010932457
2896 0.28410722579232167 -1.7105869486196084 -0.2129033484717275
1288 -0.042544092391875434 -1.1235580186991971 0.4085809306315931
3362 0.14867442392324412 -0.45393254292813423 0.016144382133982546
536 -0.38660767665625917 0.7291001119107202 -0.4067330744491542
1292 0.6351500487582368 -1.3356825614111478 -1.2302037998679873
195 -1.751343335903789 0.40893927496629084 1.4744445329600635
1206 0.8188889059238875 -1.2961891828064696 -0.2553727547905702
2155 0.9168512723270333 -0.4620145040557719 -0.12759922086233638
3274 -1.08325052270138 -0.42045585064548857 0.600547072144347
646 2.5258986535530874 -0.16185961242415772 -1.648500560160973
1610 -1.6946724550044552 -1.607328460323596 0.07306812151061366
1062 -1.381661489322549 -1.0534903791717802 -0.18363427393098558
3911 -0.536483213962976 2.3770976052287707 0.46727245402861745
1283 -1.5020869974773399 -1.7455128995928642 0.5889796947045346
1141 0.7946529554167109 0.1258553991614763 -0.046605811091563844
2580 -0.32894213789398347 -1.0224326805180486 0.40506392031652
379 -1.948379202992257 -0.16189217907272893 2.017063122231278
1240 -0.8533749930537093 0.23695034895241732 -0.9413455115812168
3258 -0.35479290166930405 2.030021629760899 1.5532098543202852
572 1.516595758358139 -1.2220702719496055 -0.7812972616834106
2374 0.019850216897178415 0.38977687975855635 -0.4023579100301914
3336 1.7021225743855173 0.322967577815362 0.8917159165560791
1765 -1.9522616547297427 -0.4886986737220519 0.7509351848153474
816 -0.662865818161635 0.6553580761494351 2.210779316177764
786 0.19243112844491775 -0.468912643113839 -1.1582744613237945
3010 -0.6129744248339705 0.7266722737003491 1.5723517753769851
184 -0.9745197226463308 1.2044725027700256 1.1028762813164885
1754 1.0989873830185528 0.002965427751804911 0.10783264995649791
193 0.8216993162820668 0.9143131406150613 -0.030377386873667134
893 -0.3455477469523142 -0.42286541500101105 0.03601312551312504
2441 -0.5847970283963679 0.4801947030903553 -0.6069759400704128
1087 1.8347062230037054 -0.6922152864015781 -0.5831447196399951
2668 0.583243190653743 -0.6661816764310858 -0.4407638724767226
2217 0.34024202181462604 -1.5152769053938269 2.272477297944571
2321 1.9593160848756848 -1.1475277994424826 -1.054893291206272
1818 0.8926851093376809 0.9496159044626826 -0.11386134738698071
664 -0.756548175804288 0.228645953746586 -0.492827039477928
3657 -1.195271852394609 -0.02149152396740434 -0.28143692857047675
3497 0.03790001867816027 -1.03766722035864 0.5944747725481877
186 1.3149509457747528 0.22327203563288422 -0.6467026235184139
2348 -0.4056862976215871 -0.2356030867209324 0.4391297158807812
1879 -0.7736700304778995 0.7278682673946514 0.6187014402052343
87 0.7119794833919333 0.5613777793551449 -1.0824630978874674
528 -0.6372255068493307 0.6010871584798068 -0.030809841100434398
2550 -1.0940215787323317 -0.17571221004681684 2.1776434452959195
2828 1.2348826280266383 -0.6040157677923035 0.8703991575551275
3628 0.23115277764140282 -0.29905394406940083 -0.73230520175176
1681 0.09764339501581618 -0.6548220434645642 -0.8840595382791734
2334 1.0401123459686774 0.44601981938933105 -0.6326465482128415
3256 -0.015488370178804289 -0.510348406896993 1.4598228737126897
531 -0.26566264991032673 -1.4982453111519805 -0.30338674584646524
632 -0.7019524159067335 0.19743812377678285 -0.1380524818415764
680 -1.0106273116196187 -1.5381144753971605 -0.5137363713628724
705 0.8135778318444148 -0.3990680787471595 1.2273387130857227
3082 -1.8315876324433116 -1.2482647508737525 -1.3236144951247268
1617 -1.1285009261163348 0.311510871484227 0.3876064705525981
3358 0.0007756271369614838 -0.5410578641646695 -0.1286299881761629
1169 -2.07078227043659 -0.3169522443067847 -1.0727510375975753
558 0.4605367042979635 0.46946047088956533 -0.5757360827267057
416 0.4420623406904012 0.16929758166076617 0.3544944073415991
1634 1.0644711008779586 0.08106036479121442 0.5821384925566758
2536 0.2523134288284406 0.027190344889113413 0.467733180714888
1218 -0.9968957229622016 0.408235557109653 0.939374275284711
2648 0.08283414997763577 0.8308636388606626 -0.42577399028669644
3751 -1.3595591475196747 0.22532058706852146 -2.4286658368421885
2961 -0.3613589936081875 -1.4826699606707519 0.2847421642763673
2330 -0.31971620706479276 1.3371391976178204 1.559461803673219
3039 1.5653105770680107 -0.8979327039195022 1.3613993135176692
3263 -1.0796922461287517 0.3213119122904178 -0.8461697483209706
2295 -0.4053126602820528 1.239083396357562 -0.7084211295592173
2254 -0.4931528257283774 1.6984242148728321 1.0415178027996645
1647 0.5202541145067874 1.2300992389510292 -1.0108174643980805
165 0.48522900248506107 -0.3304773537037446 0.9865653010201589
388 -2.0638204660287918 -1.1090914956658688 -1.1771725315108386
659 1.0887777636820726 -1.46241150759387 0.28760498974486004
3894 0.7375516129638982 -0.2953390015986165 1.0650287236917546
3953 0.824586149318391 -0.2099360629808375 -0.1435262369916614
907 -0.34021103306964473 -1.0304923231341478 0.07227859525413581
3031 -0.2363335734235902 1.1895227714849546 0.4838488604383252
1035 0.8440348842024129 -0.32098583531581837 -0.8102577903015684
626 -0.17249379671591958 0.0989391482814013 0.41917247271825814
3211 -0.516906287270496 -1.303933195634609 0.4701415709072098
2630 0.9893354343194741 0.6593869907121085 0.3819816431631265
2797 0.9809148918706967 1.1972002970647206 0.408575421421132
1585 1.3051578067641658 1.667803432524638 0.9366703880919405
2751 -0.01044114472566443 -0.5353439431188266 -2.059571942404411
2265 -0.21007399458577475 1.912485737751212 1.2117307703477878
1198 -1.32703669894085 -0.15082921508523214 1.1292180001564627
1499 1.249284374293632 -0.47589133640796294 0.9193963670599399
423 0.9690257936214389 -1.0063693065942758 0.25147563590854216
519 1.229344051617014 1.4734653721274344 0.13806875642528774
644 0.6019774557321735 1.1517260275908772 1.0003803954178527
3882 1.9016641257431277 0.4102775568970309 -0.9355360102195431
2818 -1.5181267776858718 -0.5655584277010479 0.7201903370153516
2515 1.1913421271009468 -0.6132965249724472 -1.0971878840486715
938 -0.6018855538283409 -0.3394072338332922 1.269346378598376
412 -0.5713930976355476 2.9493584670484316 1.0360432672091067
1525 0.04821075707037851 0.5264376397980132 -0.6608920969577906
976 1.0876476064450438 -0.2005953921799575 0.44075164731011973
1510 0.5428550035633155 0.7947221027668082 -0.23465180020009596
2161 -0.8495202599369635 0.0018521657101397899 0.563959484451279
2606 0.008098883225133868 -0.4030002713876902 -0.11855559974081845
3794 -1.731045123747314 1.8745267227969473 0.8444964238771477
3921 0.6145426024568803 -0.8111143202071613 0.6399098355223364
3558 -1.1535873120329396 1.487083668385905 -1.723883901920664
604 -0.21143194467659923 0.8427901170658639 1.3239855105155076
605 -0.559716425569175 0.6793488308783638 -0.9330783006015041
891 0.07874093308074774 0.3606851069368415 -1.7975416665361432
98 0.4833471363897783 0.5643497496052755 1.1167544763253903
910 -0.07434892435997571 0.8974041717525167 0.23671815668535517
1152 1.3970817838591223 -0.8119350060898167 -0.5212550033196276
2589 -0.05796370593077381 1.1352796171418975 2.0238926472993897
2733 -0.17763490228489562 0.6445558883740883 -0.34101920097933675
2134 0.5670307294252015 0.18524010517730158 -0.11258606483327442
3665 -0.19384877794064187 -0.10749397314027777 0.27695597182553944
2629 0.449626365756942 -1.3504443885251116 -0.22794435509819852
3397 1.4467350389427212 0.8245591868854704 0.6693589478150413
2577 1.5127970003033022 0.78829481066806 -0.6556866540631013
2414 -0.4139491938941033 -0.4830358115128383 -0.263780184910043
1987 2.009635725067259 0.9910166116861113 -1.244165490378705
3748 0.41513839085928206 -0.1758242189452894 -0.5495458487846805
172 -0.8434871304673452 1.0093433892357013 -1.2017941089876936
1031 -1.2384310092662854 0.6501853075237444 -0.3434545886154478
3479 0.4807523461099018 -0.6163686787794316 0.10218821680335392
3681 -2.872446340114494 0.02470453641643706 -0.7898319523392768
3330 -0.9162762092142829 1.2091898147751736 -0.30413640028955696
312 -0.4351351956271172 0.7079912852379864 -1.3127341005403537
1100 -1.7999586549447675 -0.922327199902748 1.5795276441756683
3502 -0.24826382684622475 -1.5782619964928797 0.4839793069129755
183 0.5433068822083895 1.331329315483895 -1.5764945630142198
1618 -0.5615242469004622 1.1185436671031794 -0.7373659871893153
2458 0.5019867105943681 -0.29611172937414043 0.4101414588328569
509 -0.051660109969989036 2.4001339844180083 -0.4487173000536071
683 -0.1131058957339319 1.057652009734136 1.8579009994758147
1400 -0.5054349181361045 -0.7489584349912829 -0.4532414662505359
2625 1.286361560733463 0.35247696513453314 0.2378718357943168
2948 1.0915136350578156 0.012796218182018097 0.07250699736232151
764 -1.1610386078053294 -1.1664444243202592 -0.39074536921635306
16 -0.36929879454562214 1.228120923142185 -0.1468322762141267
980 0.5263685433954498 1.2627106527277727 0.8166568775056268
3629 0.5804650749272705 0.10220897838870135 1.5848160975296728
2771 -0.13735357180126953 0.011286623474074548 1.5874966201671104
277 0.032232604607136305 0.7730442762437117 -0.1283570274704774
286 0.051101974244030665 -1.0961217132583152 0.9634352878836614
1134 0.8721772143055458 1.472166128797471 0.1221728904017293
3799 -0.38236066376552585 -1.1499016631941075 -0.45410275989592985
2655 1.0628505403296993 -0.7117533380082086 -0.44557000617512765
1772 1.8036276683974033 0.3237859865222796 0.48385033471897626
1830 -0.33226829508138983 -0.5172010862151667 0.3057690854108792
3581 0.7220627796165859 -0.9333590728432721 -1.2269756511734664
633 0.3213340093619435 0.02223703774500578 -0.9234694173452367
424 -0.6369323013705577 -0.4778434112317623 1.500185562809006
2526 0.5443383959010951 -2.6097780534673696 0.3887476030047736
2236 1.7490753555294245 -0.5440061194147529 0.7068023129764206
438 -0.24185835851665433 1.3975765803735927 0.15141625196447553
476 0.502308718895288 1.2717829412598476 -0.0384411933345677
725 -1.4953687782200982 -0.6234692231643102 2.1651240656307786
2709 -2.829731793244543 0.45144146893772313 1.0459380776244975
2002 0.01649641485769337 -0.617515448077775 2.148008814036274
1361 -0.672804751327769 -1.2933306170518357 -0.014416353437722419
1605 0.6615984870359838 -1.3841269060426389 0.5771305010882196
2190 0.7771402693545132 -0.13550294057427337 0.25198172035079286
3723 0.03259058689321005 1.9955336189934054 2.0651206939299747
3550 -0.7179870346613224 0.5147691325692272 -0.6565457612152215
576 -2.40324237239883 -1.2884771905785875 0.575486503082171
3515 0.9894810393063305 0.4185413044263408 -0.407558432956939
851 0.2081892074974847 -1.8490004601898846 -0.22111308113769212
1250 0.8113281431983036 -0.9021974809519527 0.03523874597113221
2763 0.48423228627296794 -1.1357820599908197 -0.5425615519180093
3938 0.4626524080947249 0.18157438815658136 -0.48436334220020727
67 -1.0829596535958155 -1.4845468720527468 0.27454982813320156
1978 0.9881271547908362 1.7368936549520868 -0.7347257572195818
175 0.5238274120864805 -1.108208081094885 -1.1575837763669659
148 -1.1190269079256827 0.4487948677222828 -0.1506589399848933
2969 0.05006164888088392 0.02045113145587497 -3.112739802273678
530 0.9843677947194578 1.4252975268984278 -1.0959325712689558
2724 1.0087186620531505 0.5772373163686182 0.1009723498437308
3017 0.1506990833653908 0.3255986393914647 0.5217960639815696
3958 -0.6901820077272068 -0.49180835429217584 -1.9360138276512406
3328 0.2553301169611579 0.03881509914155649 0.4866628926287259
553 1.3279964331498997 -0.5436931431258856 -1.819981292225061
227 0.08712666533366258 -0.6812900680101154 -0.28091509543561577
3088 -1.0421260991814094 0.4730572972389138 -3.3122868174257696
3832 -0.9366206342079236 -0.33243739132636374 0.6698607696283847
285 -1.3261256262568588 -1.8867270602571942 0.4296055557824539
456 -0.24685905395109514 0.4999027316768411 0.24676961949703372
1337 0.8735174491643428 -0.04418906740700002 0.1793453900239336
3054 -0.5509755195425982 0.207214693761412 0.3571568404922009
1055 -0.22032395593560242 -0.6374880316274042 1.1280162832524872
3343 -0.4613165842213032 1.0777078856073208 -1.3487250096917902
138 -1.0319373831011962 0.9755794668003418 0.7282813013193633
213 0.3320275152877835 0.5248450731082046 -0.40273754374947157
3065 0.8111149124014692 -1.2228716766937762 0.31460897097771023
3157 0.576496197682521 -0.9610966283571334 0.9118685228942517
3139 -0.8068059242379175 2.0858843840857855 -1.482765037099665
3508 -1.710125895242548 0.2549533804891174 -0.28993522614474115
274 -0.4514196055125662 -0.6621079526306087 -0.3647720559380382
1680 0.47549515061839964 0.011596745906981946 -0.18459514629452817
1786 1.941580795183935 0.15710475759840906 1.1927083243283654
2779 -0.8852138550577965 -1.2705199118154575 0.8352939952982135
736 0.24915656716025097 -1.0730086547899595 0.9786312062930597
344 1.8710447533100878 0.33688394500153723 -0.6980125278299578
1735 -0.14249651779248698 -0.5744399268923758 0.5045758227727184
665 -0.29149263797667074 0.6692531879112968 1.9458735573792334
2895 -1.4070530326106772 -0.2301435658372295 -0.772549977547787
2343 -0.39792874917402216 0.07638467605007988 -0.6675785559858048
3612 0.6570152514527735 0.4916343505699671 0.9597985364102317
1120 -1.6482399456851033 1.1862964624421681 -1.5032672558422633
3968 -0.2019993409519182 -0.09907376095944158 0.4927491176992257
97 0.011228242219594673 -1.140047980979597 0.7090663754767262
3417 0.06991427706001763 0.5945848577969577 -1.443843606190967
2066 -0.28892246254889387 1.67595935891371 0.06122360518999871
3314 0.6328947321656593 0.4760377436400335 1.4682141283989363
2539 -0.013650011777573625 1.7640251001366833 -1.397035751834932
1183 -0.5154822882188478 0.5085269111183447 -0.07297841503172812
830 -0.6323886080887676 -0.4091921395409369 -0.9855534529249257
1531 1.6959524613828953 2.0572069269121216 0.17618406921414248
2806 -0.13678079610707933 0.09289846854618036 -0.6739964930178052
3172 0.8226262502265285 -1.5382397701992216 0.23115702902899835
2929 0.3329790869312739 -0.12478815549302268 0.5868005767417972
1058 -0.9395128452516435 0.44938440155067466 0.8576612488180435
714 -1.9040651864534814 0.9510049388810188 -0.8331629805758729
2790 -1.122206137423415 -0.970900048293004 -0.10884427262731661
467 -0.7030807939824185 -0.26241887193667657 -1.3438760577109061
2490 1.861778571094812 -1.2349467463083328 3.2606348121273476
845 -1.2105943499030634 1.1944941222574124 2.336206986293543
1861 -0.2988786384567249 0.3337543413823802 0.009414796238940381
640 0.23110704515864885 0.34494538556939347 0.1488880830099018
2361 0.4180505333248452 0.7804706279000863 0.23723771066358978
529 -1.3156830992403505 0.02408290885816019 -0.8388308402978535
3126 -0.1339282060024677 0.39005322706214207 -0.9236431022680154
2730 0.08062975735921116 1.6749711837976342 -0.5474375585678893
3311 -1.641585507219197 -0.07900011285398116 -1.254739562064864
2177 1.0284356412544706 -0.669599669032475 -0.8181675945449741
3381 0.7867909204956105 -0.3731619325156721 -0.847209728527851
567 0.7462713597302346 0.34726794165144426 0.4879883644573776
3443 1.3841680027253658 0.5135698057186013 1.0017709668345465
2175 -0.3754390038167699 0.5392702156262391 -0.8254187481698957
2800 -1.3126487608737416 -0.663229269245467 -0.4839484975755845
913 0.6805398135128076 1.1136354880372143 -0.29552864499621856
757 0.04848401571197131 0.8884263229890794 -0.4106439674664689
2411 -0.8761330038642885 0.6523603175705819 -1.05629315645136
2087 -0.01689912068080296 0.0648139269728789 0.8281864863620351
363 1.0923988230214128 -0.5838723329443956 -1.106770475338401
477 0.005299254333173384 -1.2704437822607535 1.8737289658981948
2133 1.2708061272704056 -0.7618460876208292 0.03239217830685662
2449 -1.3118986502871088 -0.7563024192584881 -1.4040777466030878
3464 -0.8051149477863273 0.563691822475607 0.46461507330229834
228 -0.6698299353216798 0.48591249844659584 -0.7357531389955333
1063 -1.3899679985322941 -0.7129859493792934 0.6479708523660566
2864 -0.09857486783650683 -0.33677696342210695 -1.1305649046786026
3759 0.9912316835236995 -1.5586858216384845 1.1389072750470242
2281 -1.3287004476248787 1.1696900540313389 0.1767680766512919
1143 -0.49081883950894023 0.3789831326343581 0.40549673493455457
1344 1.0490289174887162 1.0361729822766577 2.865934761840385
80 1.0183982642451703 2.387686459228926 -0.20786012957703087
2003 -1.7436905275930605 0.18690806576779082 1.5751703633532803
367 0.6041862290027715 0.708289371853257 0.9503392759676537
8 0.9615436143104258 -0.9240002741134378 1.450234943587414
2367 0.28277819077880934 -0.30901636027505314 1.3712913265506534
2439 1.7526051245684504 0.7759988354915048 -0.01272800573653535
3416 1.3620259832321602 1.0203103342254913 -0.18415003697908663
2405 -0.13689807095166154 0.5615677499656458 0.7644196154286058
1056 -1.7313054365921055 1.7232243759876222 0.23062756188695582
81 1.0514678317565276 -1.5406931172143348 1.5048715159732844
2870 0.8774477310031088 -0.5321450005605378 0.9995166997547307
2684 -0.5889949376141594 -1.4855697179052878 -0.41810584784912647
359 -0.07984754990558873 0.42627818456493144 -0.11740708256979238
2833 -0.6590543663460122 -0.31604161410767956 -0.4435836106295695
708 -0.34651999614792073 0.7031382220612644 -1.5632115089491865
3272 0.7612402092269275 -1.116033926917137 0.7440330012132913
2853 -0.9088249817564423 0.06449168804783426 -0.6359110848935956
54 0.48623788671969465 -1.8351522643020812 2.661288974704215
2231 -0.6214410407232273 1.2288892418895312 -0.8525235536925634
2270 0.30776370239382517 -0.10126082545283907 0.3170161849491523
715 -0.5541300044881735 1.1544285015647278 0.5504556772883703
1652 -0.3652440936719859 -0.07635798689229566 -0.5507374476304462
3032 -1.5649840976773044 0.92565715755914 -0.11193098298348747
1704 0.39827211803574225 -0.14454323250872436 -0.9352135907657261
241 -0.6367320814384254 0.12770497984865647 0.7011215181992778
3932 -1.593873208545431 0.11630665684832184 0.3290549283391007
2111 1.6536799398249078 0.7225563360524171 0.21436086714945146
3687 0.6513231866947757 2.2604368488577395 -0.7105838593624949
1045 1.696140173734397 0.9097526197015768 0.43070270294956464
1346 0.5418006977047983 -0.9863240609022828 0.49529087288299
612 -1.0226149189212719 -1.2371809397967581 -0.5654827978836141
2901 0.07870833997482517 -0.692405423093638 -0.24495252311890048
3613 -2.646227422108429 -1.2688632958125836 0.4817646866327223
514 1.1595657127415417 0.4222584883199667 0.8186849584032373
2373 0.3600509903147196 -0.6282390247627017 0.5054113434590811
761 0.8970437602907415 -0.0945801221061142 -0.4136733343636212
1009 -1.414856683899774 -0.3736944608457294 -0.5452386543397683
1445 1.6599512391850784 -0.9273056672600187 -0.11689340129123896
3772 -0.4915517496321165 -0.6768124179877855 2.3689295882800523
1391 -1.555834121668923 0.011876387562411852 1.1809134322258876
470 1.117131460207772 -0.4561772939297626 1.3741737395169018
3784 0.09721072587511893 -0.6988986583205313 -0.16031774269439975
1591 -0.9334930177958879 0.5725716576643924 -0.30493583106969585
3979 0.9164489618775802 -0.5415704754911151 -0.18951935288904617
1415 -2.1010546577843785 0.3949852757213901 -0.4527737847749436
3375 -1.5286784053767075 0.3632145051350846 -0.014278323824607869
1399 1.1574370684808475 1.1031270801190918 0.5648855102806503
3901 0.06635823766218815 1.1245385412761773 0.5468262884355147
2743 1.6028238210928658 -0.9418374985593085 0.5236129108844018
2658 -0.7266508033775184 0.21027839098993636 -0.8356019644630078
319 0.20476063599024918 -0.16842832518733108 -2.0339675367926318
3238 0.6997063975482973 -1.1829203957797254 -1.0076882229868698
593 2.0105505377060076 -0.6201304361306091 -0.42437667119568845
2879 -1.0233209412474675 1.2564169234484468 1.391206050949346
2661 0.4147560325027129 0.10877768082537166 -0.18146083892737333
3852 -0.798246100292603 1.5452729594618384 1.0183092955296806
3198 0.5802791483779296 0.4248878130130846 -1.8630172020232991
3058 -1.1773306995758714 0.49117074971330693 1.5119582838617793
3994 1.102320265776455 -1.9540208183054744 -1.0434033558600413
3483 -0.07479037463879888 -1.278589736180877 -1.3976899841134636
1849 1.210755550559024 0.6460299346593165 -0.22052806696612828
1630 -0.7822037798896105 1.6054163959702283 0.03313013769176636
1440 -0.7317584013667825 0.9859725610682658 -1.5370358272834028
873 0.056994308904097096 -0.08738451591681899 -0.58014800352187
3864 0.644060119494581 -0.735218984350704 1.2996830370796506
337 0.4629431525044808 -1.751659887463835 -0.04386755306009173
1444 0.9089989045805924 0.9150802692231561 -1.9242089337384323
3576 1.6741378708300414 2.0507637019561984 -0.2670235352429676
440 1.765166809940512 0.198192944379723 1.0557341595320835
3299 1.0084766827102212 1.6242092350121236 0.03323376921256904
2438 -0.7461044533513596 0.24385210924045123 0.15576767716060394
1769 0.22035959827753154 1.8727522810847277 1.8226331478803148
2529 1.1737230768973215 1.3787863657719663 -0.6239392423150122
3964 1.5272844258006957 -0.317611128256631 -1.0479883151502292
2311 -0.06759836522595916 -0.4967372087779223 0.5338229460611768
2142 -0.11280266971560307 0.9041726728495332 0.1332658509329343
161 0.3871924865073711 -0.6694101119483218 0.4600953812713654
2903 -1.9821428134055068 0.5122793930677235 -1.5024883066236332
1469 0.05113055269967701 0.1905459601174651 -0.5809482430892846
3201 1.8314671218394005 0.44867083511669625 0.1278667641312334
780 -1.6395654202564058 1.2819961157945279 -1.3468922945255895
867 0.7964461610116683 0.25429973873134465 1.387783277351821
1284 -0.6170352921244985 -0.4881615058742853 -0.28795029149086543
3978 -0.4918779833899566 -1.246479270552242 1.3269455947768103
1539 -1.1359020119886098 0.6156296436444102 0.03341866007854705
373 -0.27255762558919994 -0.7274079227039609 -0.5522549851125331
266 -0.015892783057997777 -0.9494916786417626 -0.10915021334290609
211 0.1916458270469274 1.5186079058473048 0.37188268866074653
755 1.345526105241406 1.1865536752550847 0.31765221551332035
3034 0.9479488622249087 -0.1918754363926459 -0.6407228938504138
973 -0.9753914464345291 0.8842218811032204 -0.4943838101184593
3251 -1.0623929224626996 -0.07870413211891691 -1.3442507590660193
1843 0.5094502652980123 0.7679924887875894 -2.0691612581045704
1367 0.4602040862624258 -0.9804313556671419 -0.13533119039642602
300 0.7673177458184861 -0.5324551918825005 0.1246007252624294
2758 0.17728732874832273 0.20105625291688647 0.20150883812349768
3487 0.8167069350461422 0.7375478882764739 -0.12073344573158978
3631 -0.5699401359908663 0.7465969650140174 -1.3741484483648074
48 -2.04511643207551 0.39694594649321513 1.2181034390527015
1520 0.5156295016440362 -0.16438082497540912 1.6626958213861316
1809 0.5867268672253642 1.8017681117234756 -0.2638191929018419
3109 -1.1592874953671013 0.21482072664428287 -0.6453818207586504
2407 0.45812671789964377 0.748159520203667 -0.2527128102932254
673 0.5225416647908906 0.9637697280488113 0.6350385720808861
619 0.5389233272155782 -1.1294176367884365 1.6998358810326304
1323 -1.0654572069516606 0.966717428732552 -0.8645093492731314
107 -0.6097181212723879 -0.9306406590175191 0.24988160479862367
313 1.4988578775988746 -1.6021137049203478 0.5308480709200615
1864 0.19654823419726947 1.44429105899564 0.25654747044702797
1828 1.7969097727412013 -0.5117526297942395 -0.6209284760691692
2467 0.5345942048716753 0.6044334177273436 0.6654968765707727
1816 -0.5345484708067061 -0.15215622895698117 -1.4467113265678044
3924 -1.4495241684410722 -1.04426321138168 0.3395101141829328
3350 0.7552565654291631 1.0609458681113488 1.7210224806928138
2793 2.099726401741816 2.4411606409889774 0.365402072675954
3829 -0.6957381509829756 0.03813442231348876 1.1794364211475385
2199 1.2242500216934287 0.5773116270728322 -0.43985466983540417
3236 -1.9083379640712772 0.12701629198215225 -0.5211140894974217
1406 -0.5881974927869109 -0.481385036369071 0.04136443330317313
1318 0.5405413649383841 0.6171005694462282 0.6055133907314642
518 0.07301872234750169 -1.1916910773595877 1.1092293128491524
3455 -1.4704032545790708 0.06819592219886973 1.4682335718624169
1938 -0.20712140573472618 2.4818352787961353 -0.09426621895178153
1571 1.9967084577842122 0.8187629722662574 -1.067439116287917
2905 -0.8897662916742539 -0.9044530931730946 0.1636215809495051
290 -0.8327047665967523 1.4492668869196528 -0.06512796694965114
3363 0.10620326469932548 -1.040083101680427 -0.5566299207131851
1727 0.31525741380049804 0.11149909887683843 -0.5948262793620618
2510 1.3550342048621453 -0.5795620153257889 -0.7670399504634332
2029 0.4232548513222081 -0.6110857234293597 -1.9948343312748953
229 0.4075557584217473 -0.9113484831554386 -1.5516477554903356
111 -0.6004489033845065 -2.183703234500124 -0.8397001227245904
1290 -2.2055718799259125 -1.5697219933401345 -0.1089787406945826
649 -0.2716724872587347 -0.3404199663527373 0.23947432327638607
1011 -1.219055705661251 -0.578479204789748 0.6721858209991542
1121 1.5177126888403922 -1.5879520795134698 0.26795931717102495
502 1.2182863309034468 0.2602329938667378 -0.9379323055831674
1598 -0.537610422844586 -0.5511934246218874 1.1079358057216302
3178 -0.2991575508145075 0.9838218171021008 -1.1621699377008003
3221 0.5166214446623141 -1.1206916655533206 1.769985625700506
675 -0.7082072813482261 -0.01864504376154178 1.00475163271263
3122 0.9721339348998639 -0.5110095689792324 0.22865123774575266
3752 -1.3500804788182192 0.9146492664237 1.630486588153584
2520 1.798899432830351 -1.5197774977096363 -2.217792681956678
930 1.4676701200538254 1.4393726727039868 0.19858500711149485
1512 -0.15402018467076492 -0.9051789664205181 2.126059940262563
551 -0.3637992460499068 0.644429908234368 1.235617395356197
846 0.28913655606229877 -2.0569876411947323 -2.0655165585715127
2766 -1.0650840486694952 -0.007651375877048696 -0.08151175052671114
747 0.15835675190327356 0.19444257635663034 1.25626585523143
3549 1.255786868031515 -0.6679350260317579 -0.9012200177731187
2517 -0.19326713820180702 -0.7253549483277257 0.63538014685432
2670 -2.0890989228176653 -0.19314822236263718 -0.22430039676795957
1402 0.3211341960018323 -0.7586918649954117 1.9408347908743346
1768 0.10453963276898841 -0.15746669462747725 -0.3803477319245
3469 -0.0543359909112192 -0.5844949836925628 0.11070184461476874
3041 0.8493218957715322 -0.03739410043263027 1.2974630361832244
1606 -0.849398187258703 0.507397523953819 1.4055004760817773
199 -0.254333505517888 0.6226803239783139 0.6196500895614406
1454 -0.708165142411631 0.08274243888565379 0.061229291366107906
2226 0.8149259313229856 -0.4457990460867935 -0.7063829825597389
1619 -0.20874047973315663 0.09728599663402747 0.6421204794429999
120 -1.6635965361275136 -1.2137984436329352 1.1608976309360861
887 1.2988567344495898 1.4240777415747596 0.4852518168650855
2506 -0.10767129112264702 1.2104630909967657 -0.5720036524708692
1663 0.43017619032626364 2.6252789983869036 -0.36008649652359426
430 0.30683090218822484 -0.8323686332172493 0.46416133657654823
3027 -1.3468684234084725 -0.844868527391878 1.0631166642226957
3876 -1.6708495184286358 0.7531533061204985 -0.5467984635387351
1255 0.1743761230228304 -0.0013621374066362846 1.3358780882845624
1044 0.16814443388178602 0.19702811745896814 -0.3633124600391741
3091 -0.34095556681708733 1.3822000668973133 0.7958031375570817
3972 -0.5808988146096739 0.4682506795521621 -0.6130836904131647
1839 -0.03931589834081964 1.7410171696294445 1.3881425056267351
1804 0.986066565413692 -1.0317474912070663 0.4101324822490151
2102 -0.4782517301770819 -0.8546643503164307 -1.831912953759627
3801 -0.9956653125275241 -1.5578089803744746 0.5741082018806591
587 1.5466025462147779 1.0187563742551486 0.04601451134814826
1851 -2.0277812063498357e-05 -1.944069129395984 -0.6183748647654963
1911 0.7587592169638498 0.2655576236183892 1.0310765711277066
1144 0.9546952689820145 -0.7957428962131072 0.03536017359044787
1502 -2.1509567765860216 0.4447268042510815 2.906622299285823
1976 0.9463422933950615 -1.356607654019852 0.7126157299590732
3234 0.5531373105142886 0.15527780905352387 0.13872834082271848
2345 0.5606750828613926 -1.4248777905392107 1.205737638224315
2465 0.9643195109044898 0.14707849870899545 1.5670953497013222
713 0.7235019740438848 -0.5600545713161534 0.3540452906260594
2024 0.30877546191946176 -0.27284886608770176 -0.14898386838314592
3485 1.0059951757959564 1.1833768589981648 -0.2286384145407646
2090 0.5942870694665221 0.12284102238869984 -0.8984809560382079
676 -1.9081854610959408 -1.534692795323992 0.23020825736019201
391 -1.1473365248343026 0.3352100434769674 -0.5402465933724958
826 -2.31675278897281 0.5048112586884698 0.8174974822065729
3378 0.5961829482625678 -1.3191307830960866 0.6090405578257756
3461 0.015509460062933795 0.7095050375631142 -2.1919154814160655
3045 1.0940576566899567 0.6096160593898845 -0.1506925751370642
212 -1.0836176263009252 -0.45534710324002975 1.8389116332529643
3767 1.0549953459093337 1.2087016453812478 -0.394263712882445
1468 2.8848378107259007 -0.39968781039162404 0.7235964389490673
3193 -2.2855852004194386 -1.8166645234103798 0.8694125775066384
1612 0.5396836098888221 0.33472942548096507 -0.15285471251275876
1273 1.3891290351718826 0.5008330099663326 0.6938259900613434
1249 -0.7226115738851877 0.8141870121904962 -0.19996158414876566
2746 0.16631263862207762 -0.5125837797333421 -0.32674861448937104
2660 -1.2487896139942594 -0.21296976504654008 -0.15000482135457746
900 1.223570606000816 0.5803795150624048 -0.11174877963729996
406 1.1123396005126809 -2.0008564357224294 1.1965742005673348
1094 -0.6088806260901178 -1.209165159225968 -0.6472619582951166
76 0.7179080356695635 -0.26784300905247094 -0.6097446234968747
2235 0.09823915630402387 -0.922256745041246 -0.30739256682334476
2994 -1.1266943528300937 2.033116018203967 0.27926450702934225
1529 0.45888451844649947 -0.5841825671670949 0.6467800355844295
1551 0.6639695254449891 -1.5683234943746978 -0.6260402852247848
375 -1.8784582383631794 1.4009013799209142 0.5924332352416943
1227 -0.277893986341295 0.3913034224192916 0.3386537445855782
547 1.6789025801549022 -0.4135122332857068 1.398815888204838
3865 -0.9768898061716023 0.3840729774629036 -0.24000401299083463
158 1.7941550114763636 -0.4102570648884259 -0.8850399417938406
2734 -1.6705013351086844 -0.5881823344930112 -0.40169898404971943
2037 1.2251739443324061 0.664763682732155 -1.900700919397154
3928 -0.2097739582918166 0.08647242598146211 1.6427060732366197
320 0.3061886426908493 -0.08165293643541181 -1.0714764284533531
3235 0.036626339038957775 0.10525427457491893 -1.300472243455034
3575 -1.1340260521119236 -0.11372815773159108 0.8690589457535708
3440 1.2171277952212254 -1.8327552695890919 1.519986340124844
3344 -0.27941273289370344 -1.4579816635726177 0.09971010239689844
1053 -2.271132353706013 -0.3400683516818974 -0.8697417162733886
2770 -0.3992419035185553 0.0530839595871712 1.154664504562883
108 -0.14371304178268815 0.44271917884539175 1.9129662621792158
1497 0.5501801786943332 -0.6805622907113483 -1.43368839148324
3946 1.311298519611682 0.5610036705697361 2.679335861055993
2745 1.1568443689329544 0.6220022825705599 0.11378045240515712
1838 0.4780323233805133 -0.25887678915852463 1.440083501800484
2582 -0.5502026167695767 -1.202538024442209 -0.09204488705321819
3249 -0.8207968689150443 0.6205506081861911 0.24688678449276616
2 0.496360005543722 -0.6285365871992328 0.6334610912340514
843 -0.22289819242034925 -0.002214306801810856 -0.27263345005602607
989 0.021689058869208067 0.7070484662266875 -1.1382406313997075
3530 -0.16822454798267367 -1.1258975895898602 -0.08752845611288057
2796 -0.7315494194682595 1.3600268612213904 -0.41117056051917356
2847 -2.055295943129572 1.0113597164273564 0.8385955438532594
2210 0.35532646124819867 0.4419790057584204 1.025501153234269
3918 -0.8697578372927595 0.31129774346857003 -2.152564063140798
2986 0.8808526530349863 0.7491487345935264 -2.1381307685934767
3872 -0.7568918123345764 -0.26160538291098884 -0.020434946292708756
3559 -1.1430888508496218 1.7419495531335027 0.9518920727266105
2099 -0.42868624641564096 -1.4719050853468265 0.33156937645778317
3451 0.00916825556945542 0.4791181691336056 0.8563632043773449
3216 0.5407094587801752 1.065313228390113 0.7360744207444017
763 0.8470113658668156 -0.7583417260804323 0.41188512536200167
2687 0.3874521833852439 2.144617036269878 -1.5002701162356844
1511 1.0735521915625474 1.0987020253368656 -0.2191498573332369
1562 0.10718405792835284 -2.324459665570224 -1.0890414938501654
2397 0.4154869424474794 -0.2602897851587329 -0.23349858411803798
2699 -0.3207217637398954 0.11617265465991379 0.9088688083845161
596 0.26459261864860556 0.13870072336522074 -1.3498242291681541
177 -1.546267316406664 -0.430308431645657 0.5178937078727661
967 0.44999111016415916 1.0045300182221504 1.1180474061652168
294 0.0755354508570134 -1.2862838843265616 0.7736052659921262
2268 0.9530201205797039 -2.2813849156675747 0.9464407830081579
1086 0.5056946998509665 -0.7557053968490957 -0.9205360287929013
2466 0.07436301457126428 0.7177229767447572 -1.8458143884406577
3570 0.32829984178878185 -0.8557416097968435 2.0618945351200564
3827 0.33022396582892444 -0.17753116255938078 -0.9193159526876254
1530 1.3342802838707315 0.5491952880215607 1.4370541472069018
1880 1.6509584935420099 -1.2904163552395411 -0.15399507737738558
662 -0.20084404621545784 -1.117253546939013 0.918069814748293
1453 -0.48713621314813554 -1.045411498507948 0.2030348470409228
527 -1.101648247797319 1.0275432312288146 0.1880804085154417
3175 -1.44367943655777 1.1677635207763082 -0.4167173254666084
2856 0.10959216840462085 0.3034225755621688 -0.732732905043445
3798 0.8882683278289667 1.0742361458233276 -1.3740307462618178
3771 0.4308204002563641 1.6182167389902857 0.3372264152325213
446 -0.18581888933895419 0.06662617153571804 -0.907319780643481
2060 0.5556005225718326 -0.028134631041705105 -1.5836310625131622
987 0.44370576091375324 0.2020288581526594 -0.17356897797318765
2820 -0.8219380715533132 0.5348517049832909 0.9018454562909735
2160 2.159329195394728 -0.05895594084905875 -0.7157545775696399
2579 -0.1521183896477686 0.08083649606440273 1.201070065388188
3067 -0.37478212796510696 0.18921820750534052 0.6747188457175851
1592 0.6903552303836918 0.31584473585483824 -1.050671184943443
774 -0.14073043962528348 -0.169424966627146 -1.9684255265088964
3754 2.149234048239287 0.7292060218445563 -0.21194423550548694
1688 0.7486613360357 -1.5106099827500925 0.44564348719902097
2491 -0.3103943476979104 -0.3323066508202258 -0.33705116228496
395 -0.5631888819028951 1.1006374907293124 -0.351680455189867
2548 0.4212357098621102 0.2702830829152453 0.7952334336299813
3120 -0.6865876030733382 0.5360423863980571 0.4907042811767356
1462 -0.6088744150104914 1.549716325014704 0.7454129394043477
2234 1.4623430537806614 0.014832340109879438 -1.7833759093465982
332 -0.6790074658968379 -1.4956123951590414 -0.12066154781736765
1698 1.0440769881827934 1.235295089601464 0.2636057640140612
3102 -0.7478182965597097 0.7610560975166266 -0.2683188781199434
3843 -0.08118890650349511 1.9798454242193035 -0.3527704646498261
1755 -0.14873639615287915 1.7346101575439685 -0.15124357494988358
577 -0.23485400668793324 -1.0259162153742585 1.230523750259241
696 0.9503866941021173 0.6633213003244436 -1.1383888877268564
3537 0.9822539822755968 0.620478235805053 -1.271746457121656
2842 -0.8172251553137642 -0.46246175545406354 0.2616811245210193
2339 0.34193568605480174 -0.705038952272589 -1.140604264651398
1214 -0.7048254141164078 -0.4681352632866718 -1.2445117140996176
1155 -1.1461875542916131 1.4382322899225732 0.6471945691796668
1461 -1.0215810125526266 -1.302324622123825 -0.9644025702376896
1527 -0.1278401964492119 -1.5468614961087828 -0.9652747837013123
2141 -1.627267656380646 -1.3221235584333773 1.1084566098228852
21 -0.9709537713938421 -0.5994943650676967 -0.4779583115713464
3616 0.9854145446607511 -0.9777776638636276 0.145872758498377
1479 1.2319405706065194 1.655741442818499 0.20151034343907967
490 -0.7204789335117097 0.786317859908003 1.8049137308651713
2303 0.8690568237530878 -0.04110422700789413 -1.428773672850436
104 -1.0512192566360246 -1.7299811173237158 1.7421722219161486
1308 1.9388235693452498 -0.5860328223524012 0.8058861380426979
1226 -1.176826784896609 -0.6268003441204253 1.2837182239108749
259 -0.6403029240369567 0.3053771389174602 -0.28353913712878404
996 -0.7319275934265437 -2.1614393833717256 -0.5725218749812946
717 -0.3814284591173243 1.5230925717820678 -0.3322106448939593
2862 -1.1680404569271996 -0.5382718365133438 0.637063299320329
3004 0.2411325202904443 0.2647990322491508 1.157621221590199
1863 0.4905822806339276 -0.5601309751482657 0.7319215044747037
3563 0.5099332612949643 1.0435392136293147 -0.5636691138568456
580 0.4059943072126612 0.31992792985830687 0.9429808736113783
3656 -0.013966925938975326 -1.1974230035930549 -0.3187739396087974
331 0.29450123704164627 0.5681464064244027 0.2665554666574501
3092 1.4178385674930154 -1.0262658264707492 -0.3248338654529066
793 -0.06618718666318554 -0.09289474485899739 -0.5241350123867118
1113 0.38794953201719734 1.988540117274603 1.2170358303881872
1677 -0.1549802040394044 0.4596382483630277 -0.6840556771961015
3307 -2.03850781344929 -1.0739428349701572 -1.87800278925687
2619 0.44907966619449263 -1.4221691387080504 -1.214500977907601
75 -0.2230435939527012 0.26359663216788787 0.4001551397068783
3587 -0.5446735802138281 0.2565889001651708 -1.053986667246586
3745 0.19365082729760455 0.7333233621716551 1.2896615533366282
669 -0.8586150036617357 0.7982305515827374 -1.518204286400535
2296 -0.028387468016032296 -1.2974387301453802 -0.5476168353792584
2445 -1.3540543728194012 1.2230508086641871 -0.9676447648877251
822 -0.01853637236935283 1.5718740379893843 -0.06929108118659257
941 -0.7820639176635946 0.8854904840979406 0.5368528584261052
1739 1.181564582856279 -0.6533164174439514 -1.3012413790545572
2760 -1.1260662907713699 -0.1783680899215072 0.42590097770422464
1824 -0.1647205112370874 -1.3346587157641001 -0.30728833517293325
909 -0.9724294161057337 -1.0146670517470648 1.5623213491206551
3809 -1.914560971091583 0.7301245140490098 -0.1473043066340826
674 -1.2233912528275828 -1.1987341205938211 0.8543647233005739
2983 0.18421598174912984 -0.5787320311858157 -0.5157672378787543
3180 -1.9286703043986244 -0.24462571533563993 0.23210660247293763
994 -0.11041717271132115 0.7857860158131448 -0.7148829533172858
1643 -1.4569929195981866 -0.22772167619859668 1.651138193339955
3989 0.7400986310004513 1.7106785666261604 -1.318225331533703
3205 -0.41157058851221595 -0.08757980267946378 0.22915076416783725
3600 0.4485717955428684 1.829268061229838 -1.225189128233364
885 -1.6079943102040002 0.3272528451397086 0.29909468310142523
2985 -0.24937909610574296 -0.11807449831162556 1.2729578473538292
3253 1.4858745256213421 0.9919788090774744 -1.9851986672029385
3173 1.851257650628831 1.2058032904502387 0.7014295351232854
651 -0.651338781243312 -1.1311157861088603 1.99058260955636
3926 0.770917882347361 0.3701279919526272 0.6168193239670205
225 -0.6053162354541638 -0.1848493083140808 0.2198591782529124
2064 -0.05190173758717949 -0.7721808571759037 -0.23514722350531206
3573 0.6294974937437857 -0.8139292893793738 0.3209133704601637
3444 -0.949159448345963 0.3896334792626809 -1.1460858604634243
3765 -0.5639534599430628 -0.19623929164838042 1.1975184269771444
2893 -0.066018925692045 0.9727981788392795 0.6608410281615726
1836 1.621304535656448 -2.055927721220238 0.8324746735740348
2457 -0.4148691121945206 1.0806611540540139 -0.4228425003281427
1211 0.027729966407290328 -1.7614325943904685 2.637624951445546
1604 -0.9010208101983599 -0.5857349860587117 0.6161562710946958
1463 0.7533825509727899 0.06680453499359837 0.330097607421199
3567 -0.07882770234259302 0.7193573485346062 0.2787944787757645
419 -0.9478966969081039 -0.6026302099511732 -0.3314496507756773
2880 0.15174126115202494 0.19519193608777402 -0.11441197948072539
2700 -0.9753278225395242 -2.4754195071113037 -0.678978600453167
2264 -0.1845817248596987 -0.21205138210602992 -1.15133382993573
1856 -0.03277595630927833 -0.6019858918612769 0.14796684566159335
541 -1.5137496926497815 0.03438043427759068 1.1538990393271222
457 -0.19130292574227997 0.6628594494647433 0.785775478258981
198 0.40906590454757286 -0.18845190990794458 -1.0646943010807928
1758 0.2290429533874179 0.28340564121913253 -1.6309245318280834
3014 0.15512764135653415 -0.8787498551775815 -0.5301000433346281
1660 -0.10112240308128928 1.2791186009905968 -0.2898437025791098
2475 0.8468849976875286 -1.1822448975109685 0.8050164295351883
3162 -0.7514242219048834 0.06734267710712434 1.9133350708132306
3188 0.30575586699934376 1.457073582520317 0.7713370455478717
3783 0.4171750448987797 0.478410292593951 1.234356505140957
3803 -1.6269032722502905 -1.8473144688145438 -0.5822981641974521
1149 -0.37404053472871196 0.44831310487139364 -1.1624277790748396
1750 -1.893449462808458 -0.1901813325028913 0.791860359034886
2054 1.0497490923065222 0.8721184087205178 -0.8166524688158109
3585 -0.7112336401716788 -1.3602625596321773 -1.0570694370034013
3935 -1.5417542081535203 0.7693347254391785 -0.0926726471445548
187 1.2364855501838106 -0.37179406505946555 0.990674087269655
2185 -0.8506855942721637 1.673958716492061 0.5959830699643994
2614 -1.0394068516395605 -1.639169494758706 -1.351068585052494
3096 -0.024702478154901366 -0.5616221130185619 0.6098290856367378
3111 0.7896336204610419 0.015101793107629257 0.9836783852170672
1586 -0.15979247856253867 -0.7480929518406205 1.2701688341965496
3083 1.801484510753705 0.6640464165665039 -0.5443614201305114
1625 2.0579398083522964 0.17387810947456922 1.783079740378389
3720 -0.07900844399216063 -0.5086711750110882 0.661607143250514
1331 -0.8202774226105196 -0.23000986672136114 -0.4904571574793176
1043 0.15338121666737733 -0.8232517199185393 -2.7016157853236904
1026 0.0044269645047628325 2.073063574557212 -0.2121442901019836
890 -0.13679241949934895 0.02416096616129351 -1.1591349968710842
2924 -0.5043137136956999 0.23281911142695513 0.49216917552223993
2729 0.2890735501891712 -0.09563839831983009 -0.2214668389504194
2971 -1.1541288468426765 -1.4280757231294596 0.10144972018676846
703 -0.2911606638686621 -0.18257392960387125 1.6621737729256858
658 1.178187806034549 -0.5759869621370117 0.08295470985244878
879 -0.9615344772362059 0.19047915431348586 0.5360705174235992
1756 0.21247841273725263 2.3406880161868444 1.0435139312719455
538 0.17760812137145307 0.7315984865387775 0.4306210847749575
3174 -1.8321854466403649 1.441450771428443 -0.8155914777589787
2021 -1.6954333880579602 1.3804082387100196 0.08393680202957085
445 -0.016432695995102567 -0.5327936455785354 -0.004741295166843331
1034 0.4570289671488348 0.3960127694835969 -0.34829670735142226
1821 -0.15562332987874966 -0.07276204047117457 -2.3643632214672934
339 0.08915867140489316 -0.7324395880899717 -0.5431270653239266
3595 -0.5310304010709207 0.22549615274755938 0.5516945449426733
1294 0.4459641423158439 1.870941139535026 -0.5780431547169168
2251 -0.7726299210382913 0.0802997423343856 0.6364819927187642
3885 0.27258712664666307 -0.5789057124741184 -0.5088028971491646
3315 -0.6687086567861708 -0.29745862595109746 -0.004306426138984796
3991 1.1745275157986002 0.9126475708738553 0.6745875127038551
433 0.3495763592473856 1.0276148885870857 0.7561411314566661
3106 -0.2032085557505017 -0.32332639499956267 0.9518955022467772
3692 -0.6469056822281912 1.0432585912507386 1.0691359595631236
1095 -0.14311681298679663 -0.6216618768150625 -0.6813703908065603
3194 0.22165501616938182 0.268404985236734 -1.5010176097649266
1027 -1.785487716205457 -0.37406727651792554 1.0568880097412017
2519 -0.5988573136816103 2.0023434073243362 -0.6230818850826433
3001 -1.483797671252093 -1.5623208347190327 -0.46793973935550265
2481 -0.18222399265900555 -0.35650319568341166 -0.6632429088732086
3831 0.2051143082623029 1.9372401225201594 -0.45432662410205765
1716 1.0440377457903034 -0.8350664907507939 -0.31604347132120625
1272 -0.20464172505726663 -0.0742447813087214 0.8071352474102074
1083 -0.16408476967063854 -0.8397015911406214 -1.1744487356177429
3431 -1.1096148580404226 -1.0592278851592425 1.3574891829652993
2882 0.20324606611201324 -1.659866300126376 -1.6282555945429957
135 -0.04459529408937062 -0.12175793577113454 0.005319981592329285
2015 -0.42682124399020893 3.1158554544574404 0.0761877780473455
2124 1.2492956427776598 -2.7536691415149184 1.382438027172867
1932 -1.1017646358068882 -0.0939838570666746 1.2026325183851914
1005 0.16165511729267648 -2.4580217457099955 -1.1023746722638488
616 0.18888752564614492 1.6005290862120085 0.0779589031334663
3048 0.4726990190501294 -0.6335954696980953 -0.23134038540180146
52 0.13979679028998718 0.7258269007336413 0.18304199760200265
738 0.15772363209344764 -0.43594819736260804 1.129724648647174
805 0.2292005552349138 1.120681381039801 -0.7516397828574597
1123 0.3546228597056043 0.8007309053049937 -1.4390000913662668
3204 1.2630561827996618 0.6814551478981316 -0.39015212187644377
2129 0.5509223846416025 -0.5182253155911124 1.2309214281974343
3376 0.4660533972726609 -0.1610406148881301 0.2710971642484858
1219 1.1676280182647947 -0.40783294094055705 -0.23702794019361842
2631 -0.2037084474492859 -1.8920824905796316 1.9870231490898043
3158 -0.48065630333568665 0.5363741783604676 1.2235021093347391
2410 -0.7808476025830104 0.8559134434768386 0.05028586920600721
2121 -0.7931045590989867 0.4121896420282105 -1.256498118659568
1573 -1.0867540931775328 0.7888381574540635 -0.5645042124712393
2083 -1.5867951869807075 0.2217808461465042 -0.4861028078709848
1770 -0.05202231089435337 1.0457625185077544 -0.9178098935350618
1505 -1.7747761998698237 -0.08688639571271992 1.598456172849982
83 -0.057362638820519514 0.7381550049882185 -0.14756527821805585
2417 0.2782722130606978 0.7584250346583565 -0.9012519859006399
711 1.2835066857605566 0.28944554819648177 -0.0741756899332705
1300 -0.5920845912013099 -0.5531186683491394 -0.15806619074798345
1491 -1.1095199386495471 0.15606327767247546 1.8399505012254707
1106 0.3767987904116618 -1.352676173176326 -0.20840930439241645
1939 -1.0557375603374288 -0.6859285185608474 -2.2206395785425044
3564 -1.6581339181648875 -0.21478356831377565 0.9400016583745499
2429 -1.0605127980026228 -0.03985396681698347 0.38802661101861663
2866 0.0002155477884286478 -1.1068813040028813 0.232891964071605
1901 0.3022113414106832 0.33973425194864465 1.3287819784609423
374 0.16174918026515697 1.0431979532006825 0.854831945692074
3606 -0.2665543340062865 3.0561406500076127 -0.3626820040079743
2242 -0.8088855347007186 -0.6381953168046735 1.161497596176583
611 -1.5926463581956976 0.6608032053128952 -0.021455369343499578
3531 0.9324852680849878 1.5181407257618498 -0.9278498917645963
2200 0.49735385135459936 1.013737088267545 0.6369601658179102
1040 -1.047663725453544 -1.330892656205795 -1.112042285358611
654 -0.1926048235065329 0.13428798805406703 -0.7900714649860396
494 2.305945828755839 0.09363952513191834 -1.2280405935037906
552 1.7537537763673976 -0.7825975485524089 0.6459150620494455
524 -0.6771514410129343 -0.8583647869836998 0.9039332036365958
3297 0.9913046415752972 0.9929609258532784 -1.1307321467124147
1795 0.03825839749320002 -0.4930710316595366 1.2731971009463736
1788 -0.6756351504035965 -0.23194799211452283 0.028620332221854592
2603 0.9069326296845485 0.43196220853357226 -0.36279162655289093
2484 0.24128404174522958 0.627654383920471 -0.8427537196830944
975 0.8956923467575799 -0.2916215716152519 -0.11051319714169658
1189 0.003689668674241175 -0.40993779777579337 0.6554980811250632
668 -0.9034010161354987 -0.8064694332251446 -1.1928044642483828
1649 0.16577429799341706 2.055379572721836 0.3496380706347052
1732 0.6079616916480143 -0.34322904568251666 -0.5638914381750851
2781 -1.9689519410257148 -1.9048537441842073 0.07530888938490696
1352 1.6693971426065528 1.5629453558740698 1.5396860663358707
1425 -0.5757051950451288 0.5090281102310231 1.261879305734301
1301 -0.6710708061663452 0.1565495219555804 0.8842976661739126
1668 -0.941174828107959 -0.20208113569133299 1.008772549561999
2164 0.7941789219670249 1.9967677961211374 0.15131328545509778
2623 -1.5789484412168475 1.4142023806680126 0.5486563204906917
89 -0.18558780213972784 2.1515483458622735 -0.2103332145648727
3659 -1.9266820923773305 -0.9734132909446166 -0.48393911520233146
1749 0.36578000574923464 1.0919806435985637 -0.030124067550221244
3186 -1.7814942699911869 0.4191670812144997 -0.0926407494204342
1814 -0.17597557680122167 -0.5035586162610434 0.6057057485472787
2764 2.277299862309945 -0.7674331610502165 -0.535781313810389
3056 0.47301021117973163 -0.4812357640767236 -0.3401779496242058
1481 0.2998637991458861 -1.8684517622276573 -1.1223361189318304
3718 0.4338533511035436 -1.3477494719107392 -0.09854413277865408
1865 -0.29114014317067577 0.724492152858878 -2.136644663219159
2647 -0.04619263566545642 -0.7282277983527304 -0.3121552312639209
1600 0.01005521086094405 -1.0431401273431993 1.3669803645557286
2527 0.3484059175869039 0.6336642079601138 -0.9463635596955342
2678 -0.7634389457403065 0.8776459547876263 0.7065305315804083
1221 -0.0030346716339023 0.2461097656828104 -0.6043224976194661
637 0.5642381995623322 -0.3153400549960575 -0.40621470450242686
444 -1.112610438852109 -0.011792945353010264 -1.5391829131868333
3113 1.0541713901854823 1.0268921959286206 0.06263195450842052
3022 0.4135128585146177 0.4359966943752341 0.2826954040017178
926 0.7766392936290167 0.41561348273403886 1.8413827027044365
3954 1.0511012167675688 0.4159261642943054 -0.17116894562769341
1909 1.417576138300213 -1.5640365839266825 0.9657394901710473
3577 1.2605247869811995 0.8784993867909822 0.17252664031462547
2145 0.7148586983137617 0.0958261712290907 0.45132630543549784
1603 1.1906755337451382 -0.6618440221388039 -1.3370636762244168
1073 -0.7144314173570685 -0.7344404484853851 -0.6167939483525896
1945 -0.07240181464315024 0.49864374379447485 -0.12486521651794541
2812 -0.4723332118655367 0.7659134092349906 0.6250306759084578
2628 1.4304787470976894 -0.4854635856972062 -1.9348662168454602
3598 0.36930512648533914 -0.13257218985266478 -0.8564508742300545
1278 0.9612871962241918 -0.803696680255783 -2.2700376963620834
894 1.4857748241421287 1.1149177476345529 0.582537037671342
321 1.9378663106077612 0.05891133101715074 -0.8081894597591095
2600 -0.9152369246237696 -0.265096810027745 -1.5675498600076627
3906 0.16546378373470727 0.8093683320546513 0.38544196814927106
114 -1.654114721933107 1.9915606406862014 1.4096927551543488
2570 -1.296837646731748 1.0181406109937383 -1.3458462336482255
2493 -0.3457676380575012 -0.7196314686908882 0.9835294534652568
3742 -1.0911120704874364 -1.4874412274490827 0.11961804449576997
2944 0.29822583262779623 -0.03926472994958747 1.6390333188471564
3012 -1.093864436151276 -0.5579819373945577 -1.0160493773661785
2112 0.28334121136783735 -1.0635852715687548 0.48183133311212273
2642 0.46794747333932624 -2.2313109660937807 -1.3828478091152652
1974 -0.4551971188318485 -0.6919439367614986 -0.6463151679586924
220 -0.5354510080630659 1.4716241506106054 -1.4391341902134929
2214 -0.3743598321890327 -1.6566047532070283 -0.11743540340835237
507 -0.6871297502338678 -0.92956273128694 -0.7751336566796523
639 -0.9991061142212126 -0.4492954656652515 -2.134060776022651
