LAMMPS data file via write_data, version 7 Feb 2024, timestep = 200000, units = lj

4000 atoms
1 atom types

-0.31433712209600184 15.25235294395381 xlo xhi
-0.31433712209600184 15.25235294395381 ylo yhi
-0.31433712209600184 15.25235294395381 zlo zhi

Masses

1 1

Pair Coeffs # lj/cut

1 1 1

Atoms # atomic

8 1 1.1620461631347712 0.5192845776720767 0.38299797065762775 0 0 0
4 1 -0.2641266650965051 0.4915230271515656 0.385897766539366 0 0 0
2 1 0.4376727337802996 0.4651679353334789 15.121188896738829 0 0 -1
7 1 2.0871850128708958 -0.2782803292309984 0.4240000948940559 0 0 0
6 1 1.9284518745610701 0.4893081666930327 15.17371196331515 0 0 -1
12 1 2.8053509936514605 0.4131229779395794 0.34038086279273305 0 0 0
10 1 3.5831830228728467 0.5016352517597127 15.174495632052565 0 0 -1
16 1 4.280109712286373 0.3242980987831472 0.378661758555794 0 0 0
14 1 5.059028093816606 0.47240951894636674 -0.19609463361498747 0 0 0
15 1 5.175676752700241 -0.30275711646135445 0.5048568223025861 0 0 0
20 1 5.905606496889179 0.46447333791090006 0.5446391221029674 0 0 0
19 1 6.711419084971764 -0.2966516611071164 0.61990530840849 0 0 0
24 1 7.565661735972838 0.32791593895168003 0.34007540303126205 0 0 0
28 1 9.186446202425909 0.46981813470923517 0.5160858418977401 0 0 0
32 1 10.66009660484746 0.4489157470370059 0.41615598272361387 0 0 0
26 1 9.803619052568294 0.5109308508824314 -0.30565007322448823 0 0 0
67 1 9.924099961406121 1.176962444878391 0.4254851877040816 0 0 0
36 1 12.325492817697299 0.44200625223849477 0.5847336285599103 0 0 0
30 1 11.501598894271979 0.4709997554088615 15.229778363188299 0 0 -1
40 1 13.705010998851055 0.4896247401365694 0.46766281404186094 0 0 0
39 1 14.518705031514688 -0.27819220780501086 0.4018671924284398 0 0 0
38 1 14.491071487919758 0.4537857214992207 15.191392177288765 0 0 -1
43 1 0.37121450481776874 1.4343401623790448 0.46355718452871 0 0 0
45 1 1.2215448293470628 1.2359088751547547 15.225562557278714 0 0 -1
47 1 2.003334578631624 1.176481993943044 0.4362606868566967 0 0 0
48 1 1.3302050933768024 2.094322644616129 0.4826760918139925 0 0 0
46 1 2.0523196654348124 1.9248228481068623 -0.2806901689896028 0 0 0
51 1 3.7155532299788865 1.1502001743605184 0.553781058343565 0 0 0
52 1 2.813412907031942 2.0825558050158874 0.5099762383789865 0 0 0
50 1 3.5283695669380304 2.0661750529434997 15.234308419822927 0 0 -1
49 1 2.883433840358746 1.2686489225344781 -0.24803573241048563 0 0 0
55 1 5.0777426098600245 1.2609072742686163 0.5641455936399901 0 0 0
56 1 4.357578742392998 2.065384055373847 0.6008555657849635 0 0 0
54 1 5.143470844923839 1.9859453067899593 -0.2503185542159625 0 0 0
60 1 5.84501814627014 1.8374189630351143 0.46921838481499634 0 0 0
59 1 6.675770700763418 1.1798729945805009 0.431616687692729 0 0 0
64 1 7.579502203722611 2.0511235754771024 0.4787916107149245 0 0 0
63 1 8.336086129891484 1.328611877602372 0.441528584747403 0 0 0
68 1 9.174177606047888 1.9101652909629223 0.4104710736692966 0 0 0
65 1 9.12935180885139 1.2961866927290981 15.214056119521512 0 0 -1
62 1 8.311569222870478 2.044181604064284 -0.31427334317414757 0 0 0
72 1 10.713750386980358 2.046801277024009 0.4965615894683524 0 0 0
69 1 10.66493113889242 1.2641213519429215 15.25216235108503 0 0 -1
66 1 9.926438701260413 2.025962331427666 -0.19580693244425557 0 0 0
71 1 11.328183176367023 1.2386117356609045 0.3823761422319093 0 0 0
76 1 12.126365576348071 1.9877124758240128 0.5551073852729196 0 0 0
70 1 11.469674647629315 1.9949938697725669 -0.27498400796770217 0 0 0
75 1 12.951538282694688 1.271405772713932 0.562141854249212 0 0 0
80 1 13.707034817446207 1.9473971107553472 0.4922925172008672 0 0 0
77 1 13.902606176963197 1.2526182093418576 15.208923922536211 0 0 -1
74 1 12.97244896027972 1.9495604404662932 -0.2378121793151018 0 0 0
44 1 15.163193371781805 2.1403915854694757 0.42918894534389673 -1 0 0
79 1 14.524511212824873 1.1527462818578134 0.3937831850716276 0 0 0
41 1 15.210543818671187 1.3542133733279913 15.198098837248928 -1 0 -1
78 1 14.494368844640249 2.077908867645105 15.240458573978941 0 0 -1
83 1 0.4563437729107268 2.8750438873962643 0.3934925771825033 0 0 0
481 1 -0.20503865299217677 2.769949275271056 1.227289565512276 0 0 0
82 1 0.49983133725312756 3.60905528107131 -0.29958105385273726 0 0 0
88 1 1.2915239747832996 3.5531755294933847 0.43884401511706217 0 0 0
87 1 2.151152779735422 2.8106496750277383 0.42438483281708894 0 0 0
86 1 2.009442875510529 3.6202767565124025 -0.2839292784423582 0 0 0
85 1 1.3178969029123597 2.772029287478777 15.2240179984522 0 0 -1
91 1 3.5728935157057014 2.866305644769153 0.47499776914054603 0 0 0
92 1 2.8005688878086223 3.609758040237013 0.49253618935395116 0 0 0
90 1 3.662901992812678 3.5007582439993117 15.182813003791196 0 0 -1
89 1 2.8330450224902304 2.80572387860304 -0.26490345697825113 0 0 0
96 1 4.41464184835272 3.553781950556484 0.42821709608127434 0 0 0
95 1 5.159400214844956 2.6887844624658577 0.5193243074202487 0 0 0
93 1 4.388273616479127 2.761058056413218 -0.22583956518436438 0 0 0
94 1 5.110171770041033 3.5020743833028214 15.136549055223146 0 0 -1
100 1 5.828375833993036 3.528219146851695 0.4237796222584328 0 0 0
98 1 6.701905449093665 3.4440741114300324 -0.2805330041536765 0 0 0
97 1 5.848709410004039 2.6920049296136512 15.204287353143819 0 0 -1
99 1 6.578410349350739 2.679093899049947 0.38821291089220056 0 0 0
104 1 7.425080370443508 3.505113117879659 0.5185717696257555 0 0 0
101 1 7.43880678264784 2.7053378828184433 -0.3060978185501 0 0 0
103 1 8.351020590424177 2.808596256999006 0.40116810241869805 0 0 0
108 1 9.010338611670207 3.5114359837246965 0.43932616888857845 0 0 0
102 1 8.140996610972259 3.546507426504256 -0.30915685042298335 0 0 0
105 1 9.164465317143907 2.811894909565017 15.222044833043999 0 0 -1
107 1 9.822126984387072 2.8629177754665087 0.4540435699499459 0 0 0
112 1 10.574372471754536 3.550195971455663 0.48958123329943515 0 0 0
111 1 11.422760030746613 2.8137386610574926 0.41847374137004834 0 0 0
116 1 12.226900127773007 3.6407438756616752 0.450286132805068 0 0 0
115 1 12.891394639008176 2.7202151460147217 0.5466522263159784 0 0 0
120 1 13.731294056017429 3.772669914514391 0.3588667737244592 0 0 0
114 1 12.894760176872829 3.6856972089746742 15.206746370119074 0 0 -1
84 1 -0.28992511429390255 3.539209243199017 0.36189457037434625 0 0 0
119 1 14.46462327276037 2.8250108888326753 0.44292803920507706 0 0 0
118 1 14.547133367959148 3.5467553273585812 15.133946594755471 0 0 -1
123 1 0.541796053623749 4.315535036171012 0.43363058250751263 0 0 0
124 1 -0.2604872808072656 4.932200548635938 0.41821249672014704 0 0 0
122 1 0.547004710679052 5.179044489343107 -0.2626119179890687 0 0 0
121 1 -0.26838145236857913 4.312379441069912 15.178052250150124 0 0 -1
128 1 1.362179102560064 5.177014756321718 0.4344547691362013 0 0 0
127 1 2.147836711088629 4.335495611859685 0.4265509782249799 0 0 0
126 1 2.195360720573619 5.0365614679040736 15.217540378850455 0 0 -1
125 1 1.351965918223503 4.351125656788893 -0.2607178677238422 0 0 0
131 1 3.6154907911153162 4.27847462329614 0.37133865805373145 0 0 0
132 1 2.882768968701387 5.135472516010897 0.5241047391290641 0 0 0
129 1 2.8648310304186 4.321327723892625 -0.30141491114626007 0 0 0
136 1 4.273130182606441 5.0987145501881495 0.4435910620323402 0 0 0
135 1 5.087211922871261 4.317454270252423 0.4046633490021714 0 0 0
133 1 4.325370839596222 4.254089241292554 15.236018084874914 0 0 -1
134 1 5.064724591419717 5.098672945265896 15.230584898696716 0 0 -1
140 1 5.879633965433522 5.127342316344635 0.4827602683962835 0 0 0
139 1 6.665352144307121 4.201423664609046 0.4926544976745306 0 0 0
144 1 7.408768623466632 5.014095343421192 0.42495818211511527 0 0 0
141 1 7.35200836895405 4.238193346084483 15.23971351324986 0 0 -1
143 1 8.283793224438284 4.403357908602205 0.5519443226365821 0 0 0
148 1 9.13748148335889 5.0253237149297165 0.5026143200881462 0 0 0
147 1 9.886923908945231 4.284660646222346 0.43890292155965227 0 0 0
152 1 10.540936703937138 5.142692899361609 0.4638757285853199 0 0 0
151 1 11.339908870193572 4.349821268248251 0.4579229709407313 0 0 0
156 1 12.032149069678699 5.1104170407588425 0.4157826188473386 0 0 0
155 1 12.897237738665492 4.415993960913185 0.3845876766359896 0 0 0
154 1 12.944123845406228 5.217328237296672 15.230235723641055 0 0 -1
160 1 13.654864987867 5.107846004565163 0.5147764115423334 0 0 0
159 1 14.45038913677135 4.39709857435423 0.44168990160300714 0 0 0
158 1 14.385219400631282 5.27400110524661 15.217363149372826 0 0 -1
163 1 0.5260652966866991 5.790364377802569 0.5251011626541209 0 0 0
164 1 -0.22628959617720845 6.63330574585406 0.4505268260485822 0 0 0
162 1 0.4865861043899433 6.844944542309062 -0.29682325457186004 0 0 0
161 1 15.239138746547093 5.829854991034722 -0.28240711973813537 -1 0 0
167 1 2.118577288330271 5.915417612805769 0.46144704440096795 0 0 0
168 1 1.2174170055644242 6.819267116093082 0.3837596036906398 0 0 0
171 1 3.664398074024647 5.869769484648289 0.5327921788150978 0 0 0
172 1 2.6888254525947253 6.7772806739450715 0.5217345847015209 0 0 0
170 1 3.579236730282467 6.707546125189433 -0.2762649669333888 0 0 0
175 1 5.07003838440055 5.955991163100905 0.4873943228111486 0 0 0
176 1 4.340961685966888 6.745769044018891 0.49853061720293934 0 0 0
180 1 5.949462220972843 6.6555999340109375 0.4669238651545006 0 0 0
179 1 6.683619704886555 5.797850243255261 0.5394328493978015 0 0 0
184 1 7.51094828557979 6.63405641805415 0.47296759993058035 0 0 0
183 1 8.206029463318245 5.742553893215571 0.5177380517256515 0 0 0
188 1 9.153431032725472 6.782568875655718 0.42852036508988545 0 0 0
185 1 8.915021200826292 5.8420054004497235 -0.2006310577146031 0 0 0
187 1 9.681184955113885 5.893327234382665 0.5822915976293251 0 0 0
192 1 10.492365623260962 6.78037978869302 0.4147507069585177 0 0 0
186 1 9.857860172454192 6.595920988630832 15.219856160533567 0 0 -1
191 1 11.35534083569895 6.008602820260665 0.4332425805026281 0 0 0
193 1 12.109934932972589 5.992674138113056 15.244291341246974 0 0 -1
190 1 11.324363280247965 6.64420241798492 15.167814267892272 0 0 -1
593 1 12.148229114726462 5.973599442568773 1.2177776167260153 0 0 0
195 1 12.837694968896766 5.986050912794248 0.4650165994023867 0 0 0
197 1 13.701516123128936 5.986531342026789 -0.19418238272626048 0 0 0
199 1 14.495757054353358 5.786286962523319 0.5457406715044386 0 0 0
598 1 14.613815222584496 6.646652225531319 1.260389228518952 0 0 0
203 1 0.45885299847711536 7.497425785510755 0.5319881678177784 0 0 0
201 1 15.15637976465165 7.460451164874736 -0.234619230580285 -1 0 0
207 1 1.9770560961428525 7.570109807038868 0.48504859607237893 0 0 0
208 1 1.2794425286677926 8.315256129304245 0.5396936660421511 0 0 0
205 1 1.2785959169630985 7.570706534071188 -0.3074477343880717 0 0 0
211 1 3.5751655360640315 7.540017541876513 0.465073228488614 0 0 0
209 1 2.786935829441706 7.466892379602417 -0.22178004826776776 0 0 0
215 1 5.098632131321707 7.30698757856128 0.5220039541577584 0 0 0
213 1 4.411502099285308 7.425082637121415 -0.23310233723543194 0 0 0
217 1 5.916543791129229 7.363036854881358 -0.3138085864938738 0 0 0
578 1 6.7153470394829275 6.60481289633525 1.2547410537552175 0 0 0
219 1 6.667989052010331 7.38503582345917 0.4478124634732433 0 0 0
223 1 8.321310549563112 7.418966784746021 0.5159503159566243 0 0 0
227 1 9.808420535216285 7.532748194907587 0.4488103021165576 0 0 0
232 1 10.69949920059376 8.125780278218745 0.41013406938905783 0 0 0
229 1 10.654807998732231 7.470763905182128 15.163126223348051 0 0 -1
196 1 12.123343978953308 6.728670354667648 0.45552800981172026 0 0 0
231 1 11.337451124391293 7.299961869358792 0.4179207386339585 0 0 0
233 1 12.204168330654415 7.445475373236658 15.173165908804165 0 0 -1
200 1 13.82294551093241 6.685644964210004 0.564178919408892 0 0 0
194 1 12.927281630601215 6.633181962243499 15.243183855061474 0 0 -1
235 1 12.954018640279806 7.355477696897521 0.4275499007434146 0 0 0
237 1 13.738127596340743 7.376264709739664 15.163873013076937 0 0 -1
239 1 14.402578171231184 7.558367459127784 0.46509051935754187 0 0 0
202 1 0.4114658613031632 8.196452725506063 15.1827838000494 0 0 -1
204 1 15.248176099415868 8.210037398726428 0.49497653296717226 -1 0 0
243 1 0.41607521665848846 8.974653801018569 0.3977714585350842 0 0 0
241 1 15.192152329689169 8.981012140205227 -0.20401545252678063 -1 0 0
245 1 1.2535707732678596 9.068935370677536 15.20687729710885 0 0 -1
247 1 2.10603317251071 9.145791262892132 0.48121229598836157 0 0 0
645 1 1.3041564001292896 9.095426061467347 1.401019112454906 0 0 0
206 1 2.1457995595456705 8.265340518741525 -0.26639762722237154 0 0 0
212 1 2.727823373063199 8.378712805002035 0.5024324734821796 0 0 0
251 1 3.5325612556997115 9.039158297956707 0.5165028401876309 0 0 0
210 1 3.684333579269326 8.368369961091414 -0.26859733219003123 0 0 0
216 1 4.368912807699435 8.275783642312131 0.49826637985562083 0 0 0
255 1 5.232227206680355 9.060349004999853 0.49966788813838026 0 0 0
614 1 5.178806727554605 8.17698103552192 1.206473223070348 0 0 0
253 1 4.477721440788782 9.078628075502287 -0.14132688472662777 0 0 0
220 1 5.874106584721086 8.160465256311728 0.39916373737284505 0 0 0
257 1 5.986456503477438 9.004782870487933 -0.28573911682201636 0 0 0
259 1 6.567482354052794 9.080593299737725 0.5027142295063278 0 0 0
224 1 7.383785017595535 8.19748601326793 0.5070213591032673 0 0 0
218 1 6.752249651486074 8.261869295105225 -0.25363481510845504 0 0 0
261 1 7.304202246185274 9.07509930449896 -0.20213479913760976 0 0 0
263 1 8.158837088581308 9.031006835165016 0.44288943530101943 0 0 0
228 1 8.963047479114422 8.214621992189361 0.4554741577332455 0 0 0
267 1 9.788444310082145 9.092000849475369 0.4188979008421626 0 0 0
236 1 12.093394078059394 8.223338194655561 0.6154749701528888 0 0 0
271 1 11.310966265142905 9.043700437733651 0.3977399429676186 0 0 0
275 1 12.810683730632107 9.105851347486979 0.5814136979259911 0 0 0
240 1 13.58454452339356 8.249614094936508 0.5272372880722457 0 0 0
234 1 13.007935020787244 8.214474045372814 -0.27901797859242805 0 0 0
238 1 14.296119469111567 8.209232186105758 -0.29972447110469247 0 0 0
279 1 14.441583638108824 9.14913703471829 0.45772580830459464 0 0 0
283 1 0.4553824846174581 10.499477652887098 0.3937429907103923 0 0 0
244 1 15.206148337988953 9.898030179870041 0.5652583032505935 -1 0 0
242 1 0.2833861625341326 9.75790092028193 15.151781153627212 0 0 -1
248 1 1.1540914043184518 9.76533596892557 0.4495149998079446 0 0 0
287 1 2.008945520674816 10.48328312914644 0.5614184526016641 0 0 0
252 1 2.8485511158671564 9.83459151833345 0.47755556768703056 0 0 0
291 1 3.567057546396033 10.576370509983054 0.5563492557460209 0 0 0
289 1 2.7897600058704963 10.527089945718767 -0.28870656143892315 0 0 0
256 1 4.388202195141451 9.838520505014841 0.500285743951049 0 0 0
295 1 5.179722967013307 10.611136283423367 0.5333411802080815 0 0 0
260 1 5.9337050424223925 9.924781057783349 0.5449893596065725 0 0 0
299 1 6.746660088600019 10.601340977832177 0.4958768247384522 0 0 0
297 1 5.867912472752723 10.625464728781001 15.225434190573115 0 0 -1
264 1 7.394407727594902 9.834267622903994 0.5822952466601335 0 0 0
258 1 6.5970501945245745 9.921250867867371 -0.30767664311990595 0 0 0
301 1 7.466708871554852 10.652104551827303 -0.19777577869509672 0 0 0
303 1 8.162412744693015 10.519527630366326 0.4837011479351113 0 0 0
268 1 9.03070052956403 9.770765342131195 0.46983218746404154 0 0 0
262 1 8.200395766196543 9.918645588636721 15.225224515264657 0 0 -1
272 1 10.595430127807777 9.811884155787507 0.476455335329079 0 0 0
307 1 9.727516404233228 10.559460077675286 0.3854471536969458 0 0 0
276 1 12.162946242844175 9.875405248968885 0.5698678063136711 0 0 0
311 1 11.269242247855956 10.564706259908974 0.4731792572864091 0 0 0
315 1 12.96471984362988 10.63742341537905 0.43895476280456036 0 0 0
280 1 13.633860847131352 9.882376410307241 0.4551620568072443 0 0 0
319 1 14.482918697335151 10.79065458668353 0.4027615433692625 0 0 0
278 1 14.500887353512127 9.976872572138525 -0.28347169765086744 0 0 0
281 1 -0.24749407661789843 10.522798388858739 -0.2528393287098469 0 0 0
323 1 0.606888596443999 12.119568898344074 0.499521998189837 0 0 0
288 1 1.2694627794347244 11.296396201078693 0.4685890499245865 0 0 0
327 1 1.9652419256121534 12.095639129253101 0.4434695889085436 0 0 0
292 1 2.7834872736644853 11.291213762486372 0.41940742515790885 0 0 0
331 1 3.6073967161464844 12.152999375760125 0.587816390546286 0 0 0
290 1 3.5958639126996634 11.46158559469303 -0.3061441260473644 0 0 0
296 1 4.340837995025409 11.306439422376041 0.558243569029658 0 0 0
335 1 5.052057388438104 12.142673189077733 0.4755105648511282 0 0 0
300 1 5.954636702317083 11.392599313895769 0.3229277954165318 0 0 0
339 1 6.705231718618724 12.144996993927375 0.4850281179957332 0 0 0
304 1 7.526118638058913 11.404911602005676 0.4576646964119059 0 0 0
343 1 8.280844829162678 12.123150492320548 0.43933604570991935 0 0 0
308 1 8.894974504884132 11.301978100890011 0.39735894590963217 0 0 0
302 1 8.178319608226516 11.30962647499014 15.216241233708516 0 0 -1
312 1 10.51147792105392 11.380312145143677 0.3305713395736972 0 0 0
347 1 9.852609939333767 12.138919892212677 0.3944134713009366 0 0 0
706 1 9.727308443014966 11.40491876215044 1.2284533819071746 0 0 0
316 1 12.06925937895037 11.416181894315446 0.5097997847942679 0 0 0
351 1 11.360532141800608 12.223475873841682 0.3720164368451029 0 0 0
355 1 12.863212145455282 12.21332332425823 0.5438350461016744 0 0 0
320 1 13.78055739373282 11.47673015153731 0.4362943069586349 0 0 0
314 1 12.83627248188963 11.512288591068916 -0.2645312278891761 0 0 0
357 1 13.618800161646636 12.155281714022276 15.227285061702975 0 0 -1
284 1 -0.2178599726248106 11.509660668047932 0.38054892309137744 0 0 0
359 1 14.56384189071192 12.165323731480711 0.39508601024300716 0 0 0
321 1 -0.09319119405789517 12.21500210526828 15.209366745246719 0 0 -1
363 1 0.4367183112480503 13.787765532882862 0.4362256803341309 0 0 0
322 1 0.5667880192970904 12.947520453131666 -0.24415024726692353 0 0 0
328 1 1.3406211242890684 12.930309472547677 0.5016685704741437 0 0 0
367 1 1.9973840557556013 13.669001234997108 0.6139866849351733 0 0 0
326 1 2.039951640671933 12.902248107937673 -0.26749825222112295 0 0 0
332 1 2.861063153575325 12.948091439008063 0.5323965959057143 0 0 0
371 1 3.6683176018742274 13.739429998786033 0.6366849086104881 0 0 0
369 1 2.8414297576244434 13.626844522523495 -0.29473493572017795 0 0 0
330 1 3.601941858897194 12.898575156225558 15.216255313033056 0 0 -1
336 1 4.2258174576061185 12.960013613557486 0.42862861188517287 0 0 0
375 1 5.12103592948841 13.673573181537598 0.4885470421517376 0 0 0
334 1 5.0483394981044345 13.015580444444321 -0.3097608970615404 0 0 0
340 1 5.940395753058278 12.825449391933972 0.4280952850079419 0 0 0
379 1 6.683471099450233 13.624090025643635 0.5420443306119394 0 0 0
338 1 6.588174363822868 12.942699054324617 15.15697365238335 0 0 -1
344 1 7.533638101903774 12.960551849898795 0.44118556711628887 0 0 0
381 1 7.4812010397329285 13.780065126384265 -0.18143344047140889 0 0 0
383 1 8.330406934641044 13.710245652412908 0.45217149432116843 0 0 0
348 1 9.186893460450051 13.003511790448947 0.5271501346390932 0 0 0
385 1 9.186559872052165 13.714896933757132 15.232894847448453 0 0 -1
352 1 10.541817082168262 12.94034893555213 0.42532187766703256 0 0 0
387 1 9.882746412259966 13.787043151034297 0.39078642953606557 0 0 0
389 1 10.553198207260937 13.69084812516337 15.172102189194753 0 0 -1
356 1 12.061158844274097 12.986575539961454 0.4161107380222264 0 0 0
391 1 11.379328815421616 13.716630058819366 0.5306443288397176 0 0 0
393 1 12.09713370084673 13.645848215615235 15.233290586430542 0 0 -1
350 1 11.304974606062657 12.972204375911573 -0.2866065814439868 0 0 0
360 1 13.809011705179827 12.83824988027439 0.4215062120716657 0 0 0
395 1 12.955201112615953 13.73924318937091 0.539056600294078 0 0 0
397 1 13.707625651335771 13.676163125896682 15.226343117367193 0 0 -1
354 1 12.842077133475609 12.866584461384143 15.20677977017133 0 0 -1
324 1 -0.17401941022835693 13.018692556670057 0.5298640106737977 0 0 0
399 1 14.478661231629747 13.655265653684442 0.30509131106748655 0 0 0
361 1 -0.2594439143762918 13.63926937468407 15.226416823217313 0 0 -1
3 1 0.427380649991966 -0.2589578083693336 0.4764538745992024 0 0 0
362 1 0.44492894557285567 14.520404575786582 15.230887275112469 0 0 -1
364 1 15.22913853263642 14.479172434134348 0.37153591291705435 -1 0 0
368 1 1.3780178682781679 14.615589313428334 0.5254300935339608 0 0 0
366 1 2.1358644520873646 14.404195955742278 15.178046798483468 0 0 -1
11 1 3.497501152246889 15.219450040908459 0.43489051975127146 0 -1 0
9 1 2.754853099058405 -0.306936467072581 15.167918078708347 0 0 -1
372 1 2.795896119509528 14.438452240944603 0.464204430497134 0 0 0
370 1 3.6024671528971295 14.485430330349345 -0.26288514289864884 0 0 0
376 1 4.4122896229989275 14.391823429904658 0.47775431332898555 0 0 0
13 1 4.268977280420434 15.175711769279893 15.180774335964806 0 -1 -1
380 1 5.949390121693174 14.61742904856029 0.6186510832351841 0 0 0
378 1 6.642534805598343 14.47815899675832 -0.16687555325482203 0 0 0
384 1 7.513713189292614 14.477258911015497 0.5439659202009335 0 0 0
23 1 8.372624619441563 15.245854214473862 0.44412674859733836 0 -1 0
388 1 9.099128137360829 14.563145373353276 0.38963426556731096 0 0 0
27 1 9.92307934588727 15.223902251766471 0.3882886563203878 0 -1 0
29 1 10.627382842169872 -0.2822229971633874 -0.2999263745966978 0 0 0
392 1 10.673718087792206 14.536205846478754 0.3841935541403355 0 0 0
386 1 9.739984766630158 14.498541639384207 15.14714148906948 0 0 -1
31 1 11.467854324948842 -0.2819170299625853 0.3987890314865379 0 0 0
396 1 12.138782384450899 14.454222106344883 0.5634041536993296 0 0 0
390 1 11.445993281643464 14.396026518108396 -0.27433028698872475 0 0 0
37 1 13.682754167479231 15.250442085126839 15.216938321384813 0 -1 -1
35 1 12.998113163637651 15.167859432592444 0.3997467486562647 0 -1 0
400 1 13.723625654100818 14.398954146688165 0.4025633157833314 0 0 0
1 1 -0.2958013845323002 -0.24457516277086747 15.11932326653385 0 0 -1
402 1 0.3809105272679538 0.5685480146486255 1.1909740169770582 0 0 0
403 1 0.36870066966307846 15.206487392797147 1.7896584099620116 0 -1 0
408 1 1.251006947317876 0.49311928674180394 2.0318309491019786 0 0 0
406 1 1.9368435014603338 0.46169392810024923 1.157926513547173 0 0 0
407 1 1.999805831767183 -0.302498098141613 1.9964456161628936 0 0 0
405 1 1.147899786407791 -0.1401725272323849 1.1958770539816304 0 0 0
410 1 3.6298007002704806 0.41450335267490324 1.365441295037824 0 0 0
412 1 2.7519934085911935 0.4739690778925342 1.9516713603915061 0 0 0
409 1 2.7440346797523896 15.202336866948645 1.2553832882412685 0 -1 0
411 1 3.602794555868932 -0.2780300608720401 2.1428485849918797 0 0 0
416 1 4.446657428528936 0.3748165846205783 2.083507097417246 0 0 0
414 1 5.152541162904046 0.2967605205024848 1.336917753216009 0 0 0
413 1 4.420130632612429 15.241847812480017 1.2583679693008318 0 -1 0
415 1 5.274303051144071 -0.30702618539861604 2.117936421447459 0 0 0
420 1 5.944852963725008 0.3982680794373721 2.0722135039702385 0 0 0
418 1 6.6804870595322265 0.5380545306377551 1.2458464637468567 0 0 0
417 1 5.990669898328786 15.22843915774179 1.3828529065090844 0 -1 0
419 1 6.771154961226414 -0.2272899829913238 2.1183403375369623 0 0 0
424 1 7.418318827212867 0.4954061704687215 2.016527198385326 0 0 0
422 1 8.336893672148701 0.4202588371591165 1.1486580797359207 0 0 0
428 1 9.038492030241034 0.4633988311812425 1.9841911511019026 0 0 0
423 1 8.256373866712995 -0.2428168545851649 2.1283869538797293 0 0 0
426 1 9.914969968248556 0.3621616152818028 1.222378035272984 0 0 0
432 1 10.659798752540098 0.4591389145493835 2.045796765904617 0 0 0
467 1 9.950671214484728 1.1469235664916297 1.978429172421459 0 0 0
429 1 10.667258870438648 15.213576109945304 1.2368432010697377 0 -1 0
430 1 11.24576881218859 0.4455570961418689 1.2507927411825364 0 0 0
436 1 12.11041423413721 0.4008258158448933 2.022601649838185 0 0 0
434 1 13.008299633489319 0.4753317879331468 1.3255029089328472 0 0 0
440 1 13.715009072346604 0.4388843368610429 2.1149088220455896 0 0 0
404 1 15.251916028560649 0.44763260321958775 1.9895289813928652 -1 0 0
438 1 14.489475691224232 0.566288914134191 1.2242343188421194 0 0 0
439 1 14.503766975843007 -0.2952413525358126 1.9216799653478778 0 0 0
443 1 0.5665984994921972 1.2964953845493072 1.9736329951102514 0 0 0
442 1 0.5019828500546184 2.1289180944469908 1.2152882467421036 0 0 0
441 1 15.145895686385238 1.3986222880978143 1.1532671477351648 -1 0 0
445 1 1.2103475855940644 1.345742682540712 1.1223238671181126 0 0 0
448 1 1.3552952401605838 2.1050287185914223 2.0287435971924768 0 0 0
447 1 2.0111684167451833 1.1944799761673366 1.9716141743600142 0 0 0
446 1 2.0502644180143577 2.0280648896352904 1.1519674756147051 0 0 0
451 1 3.3790098361863223 1.2460728232984135 2.040043346999798 0 0 0
450 1 3.5058548298097554 2.111629890262428 1.19713360829501 0 0 0
449 1 2.829977410469472 1.163563083185226 1.0871359644426868 0 0 0
452 1 2.7300537226353754 1.9841983652354154 1.9037495165175788 0 0 0
455 1 5.205009911809458 1.1916038194189655 2.112675594317179 0 0 0
454 1 5.140623487624712 1.8903822625891524 1.3526762819981326 0 0 0
453 1 4.382679869633344 1.1492265671815214 1.3978308272166795 0 0 0
456 1 4.162732920841862 1.9912149938008326 2.0277667484431547 0 0 0
457 1 5.8449359586979295 1.1585493611313558 1.2609794458182173 0 0 0
460 1 5.973756758801749 1.8736316622608706 2.0534656130186266 0 0 0
458 1 6.826362408661764 1.866756715532544 1.2192998508216988 0 0 0
459 1 6.763357973236941 1.2451065948401658 2.051540941955312 0 0 0
461 1 7.577071845983799 1.1326779192257623 1.061175511793236 0 0 0
464 1 7.580937306163332 1.8892953374341253 1.883943105638087 0 0 0
465 1 9.20372217418085 1.2166155851037825 1.1755110514462421 0 0 0
463 1 8.3508097972013 1.1898686731824935 1.8512283668469256 0 0 0
462 1 8.44742872746486 1.9512146115699207 1.2825011983181833 0 0 0
468 1 9.162454730592753 1.9466664080944067 1.9756892670815072 0 0 0
466 1 9.897559648148597 2.0745511845726194 1.1572952744562834 0 0 0
469 1 10.537224418939228 1.2965941711170614 1.2306945171393646 0 0 0
472 1 10.604747456985105 2.029483341617328 1.9148050295923285 0 0 0
471 1 11.33800382832948 1.3267098225437906 1.9973945527653703 0 0 0
470 1 11.34215565606603 2.1552328058905763 1.3086518637853835 0 0 0
473 1 12.085872394124017 1.1284339061056117 1.3697618992175378 0 0 0
476 1 12.144290082414432 2.014554324577681 2.0479395739256345 0 0 0
477 1 13.841672931378753 1.2674267919851354 1.245810058505544 0 0 0
475 1 12.830827754887729 1.0893641316644995 2.0793623918188584 0 0 0
474 1 12.927558143351607 1.8951495759366677 1.3679516506892055 0 0 0
480 1 13.771217328741677 1.9985622744804492 2.0057048549638368 0 0 0
444 1 -0.17767007980689334 2.1585222341228305 2.0321977637382447 0 0 0
478 1 14.497043076708827 2.179626851716981 1.209174189896563 0 0 0
479 1 14.528277826715545 1.3031538591484408 2.027832378820957 0 0 0
482 1 0.48088828655661 3.637052860360125 1.1705549390922194 0 0 0
483 1 0.5642604596259055 2.897003031326535 2.0145843812651547 0 0 0
488 1 1.2766947357175027 3.6856966611674418 1.9634340158152015 0 0 0
485 1 1.2653861041669114 2.8151388126819783 1.2844045957695522 0 0 0
486 1 1.9951342947271011 3.6225667842044404 1.2370756617811356 0 0 0
487 1 2.015346912680118 2.9201771110392607 2.134158751899815 0 0 0
489 1 2.7771736964159874 2.8446491650099412 1.2741128539674484 0 0 0
490 1 3.5421876693219767 3.7053106668149534 1.302622712046087 0 0 0
491 1 3.6165961560237023 2.8619034166741084 2.100924049142597 0 0 0
492 1 2.8528591238543726 3.53938541634574 2.052555494530782 0 0 0
493 1 4.278640760368059 2.9188713635723462 1.2122066388373993 0 0 0
494 1 5.177698417936287 3.4254467462201172 1.2090977688447648 0 0 0
495 1 5.104201412374523 2.6434533484620433 2.0578151612586524 0 0 0
496 1 4.331135342961968 3.5896455962505787 2.027401183020655 0 0 0
497 1 5.894076763132595 2.591201075494322 1.338318476937382 0 0 0
500 1 5.866343876995543 3.3815525257070815 2.0021520933709747 0 0 0
498 1 6.581118255232489 3.4044755005534904 1.0900961928065453 0 0 0
499 1 6.704203567299633 2.647333452885979 2.053927912664446 0 0 0
501 1 7.542840706057606 2.808976433496088 1.2675900038573913 0 0 0
504 1 7.493633889846501 3.5366669404576614 2.036997594150116 0 0 0
503 1 8.330181410106672 2.750662953985266 1.9345221827478225 0 0 0
502 1 8.232957843964083 3.5875159023636622 1.2131108935914032 0 0 0
505 1 9.059823886066166 2.7678930808539084 1.1894890498690682 0 0 0
508 1 9.039528810954486 3.5792866812618858 2.0388017522123794 0 0 0
509 1 10.587031870542255 2.8770716230579434 1.2202399914926534 0 0 0
506 1 9.790324466677873 3.654183940574596 1.2535698307435146 0 0 0
507 1 9.829233267465181 2.803755685801037 1.9475056751569433 0 0 0
512 1 10.614575175492043 3.6882623514616304 2.0203747713456583 0 0 0
510 1 11.296669162558437 3.5459744384933742 1.1993518021369542 0 0 0
513 1 12.113495085104013 2.8286372495841614 1.2031296882673703 0 0 0
511 1 11.486917221165495 2.8539940707115883 2.002782675428328 0 0 0
516 1 12.195347778985532 3.655581539166227 2.071188991567369 0 0 0
514 1 12.93516296667632 3.630378074185958 1.129417643625466 0 0 0
517 1 13.684539192585525 2.8568686079772547 1.2281575024148046 0 0 0
515 1 12.934595519702587 2.8452073067115715 1.895191889023946 0 0 0
520 1 13.621802068669744 3.584955279459396 1.9241539944092318 0 0 0
484 1 -0.24056390541091915 3.56072245533216 2.0070090376220984 0 0 0
518 1 14.35355310105274 3.7416060577281636 1.2447906902192218 0 0 0
519 1 14.414505154050037 2.9468007652201003 2.013964465368597 0 0 0
522 1 0.41226729303882914 5.113045669096247 1.2541043646103067 0 0 0
523 1 0.418113384005002 4.3711535290191295 2.0003526226704555 0 0 0
521 1 15.199784174470015 4.299135715878873 1.3114028223536824 -1 0 0
525 1 1.3034424754958889 4.390986683628244 1.2687831440422555 0 0 0
528 1 1.2286802450917578 5.060556154858584 1.9846393480401718 0 0 0
526 1 2.1919268686818656 5.193468543078695 1.2168725825833981 0 0 0
527 1 2.0648311140246243 4.3762413982586 2.125293103137162 0 0 0
530 1 3.5181996456629476 5.049156107134051 1.2649871971882711 0 0 0
529 1 2.7941068710446517 4.315758741869697 1.396487305509996 0 0 0
532 1 2.828161619308794 5.129911567470759 2.0797466767508825 0 0 0
531 1 3.6360197596132062 4.2883499200438715 2.1288079675650153 0 0 0
533 1 4.400558198592132 4.243788275938635 1.1304293694869936 0 0 0
534 1 4.983282126520472 5.134302922967239 1.1813321227947922 0 0 0
536 1 4.271891508196424 5.091804849812549 2.0176178350520053 0 0 0
535 1 5.150902985760603 4.246310407948763 2.0164967011046544 0 0 0
537 1 5.747995981798842 4.259593968002326 1.2304824369356275 0 0 0
540 1 5.708989157305369 5.037659968907965 1.914069692928119 0 0 0
539 1 6.634988107584607 4.124114411720198 1.9447471171879376 0 0 0
538 1 6.534338338144439 4.958732484596306 1.246841809945327 0 0 0
541 1 7.367191117466829 4.2893823366399 1.2605920861774877 0 0 0
544 1 7.410191860623843 5.066580696661074 1.9813465425674175 0 0 0
545 1 8.985868231861101 4.286717690492307 1.292619696165125 0 0 0
542 1 8.213857834760017 4.898198010546841 1.3703046042833495 0 0 0
543 1 8.196618779914562 4.3359787237027785 2.189440026299201 0 0 0
548 1 9.130403628722132 5.030961623102681 2.0259185259584727 0 0 0
549 1 10.59712481857271 4.324236284593886 1.1557047299108851 0 0 0
546 1 9.858149246123109 4.971945977487074 1.225081764297239 0 0 0
547 1 9.977166201195928 4.446432223635036 2.1109580981993066 0 0 0
552 1 10.639003503828441 5.159775253454371 1.9144722690073412 0 0 0
553 1 12.147983129051418 4.31625788977561 1.2338983903050202 0 0 0
550 1 11.392385186696167 5.105401599208072 1.1961276819922346 0 0 0
551 1 11.34889689205431 4.260974408680139 1.9807117840973798 0 0 0
556 1 12.121474135190873 5.060258611205712 2.036677697645729 0 0 0
555 1 12.962306087824249 4.355347610357413 2.124830734705271 0 0 0
560 1 13.83017064231138 4.962252283631278 2.038075192255356 0 0 0
554 1 12.776667485972617 5.072144547634495 1.2660003191810965 0 0 0
557 1 13.675742832447238 4.464502836222922 1.202073589752815 0 0 0
524 1 -0.2523853033729409 5.018121643524333 1.936611441405021 0 0 0
558 1 14.538240832483726 5.061034807252064 1.3159289935568277 0 0 0
559 1 14.523587443492591 4.201539256188143 2.063895671976363 0 0 0
563 1 0.47715759481662745 5.828825501115067 1.986067556944744 0 0 0
562 1 0.6171300508600591 6.587116523946235 1.2774978918310929 0 0 0
561 1 -0.2763731850927516 5.9718386283306835 1.2755333422112152 0 0 0
564 1 -0.262888716983566 6.68352470831995 2.1028439323134442 0 0 0
565 1 1.362966207954048 5.858264816475996 1.1968205542506238 0 0 0
567 1 1.8725947968475007 5.9113639907206945 2.099577044658517 0 0 0
568 1 1.1852176851447278 6.659246664027567 2.145458146755877 0 0 0
566 1 1.9466996167218884 6.694885777058637 1.3036752092730615 0 0 0
569 1 2.8382118497571796 6.0043184167759165 1.3075487702505384 0 0 0
571 1 3.717103942456334 5.914633632274973 2.0496356442050048 0 0 0
570 1 3.5778080292780743 6.770318007937458 1.1616809090152684 0 0 0
572 1 2.746362037160291 6.756115182882037 2.0433167826046685 0 0 0
574 1 5.153540217451242 6.6160146998089475 1.244318285733175 0 0 0
573 1 4.384089945258931 5.963817077598619 1.264429564944227 0 0 0
575 1 5.02834560379636 5.838355981026932 2.0344962059704934 0 0 0
577 1 5.846433480591673 5.866935189397291 1.3092792691607058 0 0 0
579 1 6.615626547994766 5.68622572471092 1.971288007052281 0 0 0
581 1 7.42530142572396 5.6776321961432075 1.2168719739178324 0 0 0
584 1 7.394903230181236 6.527719367956381 1.9630809776324942 0 0 0
583 1 8.194589180798857 5.850902434343609 1.8904566650909165 0 0 0
585 1 8.917231120796295 5.748360727947865 1.2383859479344839 0 0 0
588 1 8.974622696572446 6.595031284430456 1.9666179065358942 0 0 0
582 1 8.298164289427373 6.6081490017654305 1.13957243899617 0 0 0
589 1 10.513080118290269 6.029350158952091 1.1137059928926787 0 0 0
587 1 9.820292129019549 5.803900138909105 1.9602453534450954 0 0 0
586 1 9.75931348482558 6.705560229489182 1.3172921571265672 0 0 0
592 1 10.640560734753862 6.60217310962144 1.9042660258687092 0 0 0
590 1 11.368852257998356 6.610734168044782 1.1479295045465003 0 0 0
591 1 11.407605291469277 5.7089644928399155 2.028655818686687 0 0 0
596 1 12.100111884305555 6.747363039447508 2.05423693292331 0 0 0
597 1 13.53733178027083 5.7212707963458405 1.3251213842727323 0 0 0
594 1 12.872218860511932 6.719749812760017 1.285090984615966 0 0 0
595 1 12.745760390539118 5.9288954204063 2.159702438115483 0 0 0
599 1 14.46509738436417 5.902986946697864 2.0507154562351113 0 0 0
603 1 0.47440732093847415 7.451718102458428 2.082225118272456 0 0 0
601 1 -0.2894406178974682 7.452679219512766 1.1759890671419615 0 0 0
605 1 1.200680423356354 7.51211082373719 1.3330830612394933 0 0 0
607 1 1.9367786013537667 7.533617603103214 2.037872189540871 0 0 0
606 1 1.9879931827239923 8.249554586820711 1.234697483979462 0 0 0
609 1 2.7346825160304284 7.553947176417892 1.2942871073875797 0 0 0
611 1 3.47545155606456 7.469561826920897 1.981634712602521 0 0 0
612 1 2.7299862393888086 8.330489440702014 1.9661675898516342 0 0 0
610 1 3.5116519253419884 8.26248736704498 1.221299230467201 0 0 0
576 1 4.325896348012973 6.750195745299235 1.9368960741313854 0 0 0
613 1 4.252167908148436 7.5856597894604 1.258895231092195 0 0 0
615 1 5.135417841709438 7.495971717956446 2.008900961236413 0 0 0
580 1 5.914433521079243 6.5812400822697095 1.9546866185855323 0 0 0
617 1 5.944079012375521 7.378744480707836 1.1817926646710908 0 0 0
619 1 6.734487327034415 7.409605096539051 2.0681282708115436 0 0 0
618 1 6.57315077580034 8.143514589773535 1.1686481391745154 0 0 0
621 1 7.3956129174058844 7.380363031946181 1.136324829413665 0 0 0
623 1 8.103341915612017 7.307686691399446 1.9618599119721618 0 0 0
625 1 9.051320694099712 7.50058008461072 1.3094228272348516 0 0 0
628 1 8.942976884994785 8.160397701869641 2.0524057150780255 0 0 0
629 1 10.545443957341519 7.468656262655451 1.2207358379927509 0 0 0
627 1 9.733161192247216 7.535716187139854 2.0292320103249746 0 0 0
626 1 9.796563285758651 8.237579004735412 1.1462834113245473 0 0 0
633 1 12.081291809430024 7.346395374628456 1.2378703099971644 0 0 0
631 1 11.32390977974098 7.455869336913637 2.0187317504945277 0 0 0
637 1 13.814326313400443 7.509213459024366 1.2579777362586106 0 0 0
600 1 13.715639728056683 6.61203285923221 1.8792904551380074 0 0 0
635 1 12.94339850659906 7.407956003795502 2.0117216053511897 0 0 0
639 1 14.456775516737533 7.444434544666365 1.9730053136259778 0 0 0
602 1 0.44405482442601096 8.28344385563587 1.158845952694469 0 0 0
643 1 0.32857256747325614 9.053033851151447 2.0727871613842503 0 0 0
641 1 15.181673527374269 9.116230007884539 1.1751556936279275 -1 0 0
608 1 1.1162317958386672 8.283934628270305 2.024463117483433 0 0 0
647 1 1.9849935577330053 8.998384777687594 2.0816863452654175 0 0 0
649 1 2.817280238108608 9.215301890653784 1.2757871879632743 0 0 0
651 1 3.698588456706883 9.046932309237853 1.9368147960194597 0 0 0
616 1 4.373172788620714 8.24263193022442 2.024769579766134 0 0 0
653 1 4.470830890783237 8.999217126163128 1.1248046568136476 0 0 0
655 1 5.096304051857323 8.99555325131601 1.9887421901562745 0 0 0
620 1 5.863613896022083 8.26586724078767 2.0478660738453254 0 0 0
657 1 5.905397106450356 8.997422636088928 1.2347847591624137 0 0 0
659 1 6.650750645668384 8.945314522761667 2.1152887887227347 0 0 0
624 1 7.422802538934854 8.168290002548883 2.0689407340485557 0 0 0
661 1 7.366499451615665 8.920846306981968 1.1307169840803641 0 0 0
622 1 8.141151011793305 8.125757781732915 1.2825585867268567 0 0 0
663 1 8.212933501189426 8.925684018969967 1.9889701381271192 0 0 0
665 1 8.975791389114605 8.923782151754988 1.2058093494124213 0 0 0
632 1 10.520660552144864 8.218308797860512 1.870175523168093 0 0 0
669 1 10.733933486659456 8.963890600313924 1.1522184873062247 0 0 0
667 1 9.81278614310219 8.959082632802637 1.977464677793273 0 0 0
636 1 12.133198440520623 8.269674895848077 1.9727451618872025 0 0 0
673 1 12.049733304329223 9.09361744413225 1.2896371364701773 0 0 0
630 1 11.351288719920717 8.128859399225068 1.2675244841988442 0 0 0
671 1 11.496895432330899 9.079636397015253 2.0819034160579375 0 0 0
634 1 12.81860011691941 8.057306871551653 1.2631200394130566 0 0 0
675 1 12.827885842490648 9.065194055595487 1.9903189761394153 0 0 0
640 1 13.638326859811567 8.328146460125353 2.0039731849696594 0 0 0
677 1 13.691179872899681 9.097400669390208 1.1799883058747391 0 0 0
638 1 14.451653974892888 8.35479143845875 1.1554925606566149 0 0 0
604 1 15.101568135819331 8.29117264152654 1.976900163783108 -1 0 0
679 1 14.475904885313831 9.112086262554609 2.0180715589001923 0 0 0
642 1 0.5349443091468254 9.77225930458538 1.2791502342069148 0 0 0
683 1 0.5195962588006432 10.540434816172347 2.1287791010074293 0 0 0
681 1 -0.23358007916583026 10.662017356795179 1.2485821615810808 0 0 0
648 1 1.1983010539989765 9.763694233705088 2.0729889561928014 0 0 0
646 1 2.0367969896172706 9.78730693852522 1.3829396818146782 0 0 0
685 1 1.157426719707367 10.52472343885795 1.2650828744768103 0 0 0
687 1 2.008815232009315 10.55409901582777 2.0146769681354852 0 0 0
650 1 3.7288651651017046 9.761541596139729 1.252798662152478 0 0 0
689 1 2.8906853313720204 10.638914169968107 1.258229099615544 0 0 0
652 1 2.7822183986897167 9.772454318238587 2.0747315278739116 0 0 0
691 1 3.619144499536269 10.54364052021851 2.003589874559238 0 0 0
654 1 5.201116304169796 9.786387477994431 1.2981952776714842 0 0 0
693 1 4.444361804449223 10.55393967174264 1.2413021877962365 0 0 0
656 1 4.445127457546299 9.76853351817152 2.012619485797753 0 0 0
695 1 5.1496267274673695 10.602538672948395 1.940216662015171 0 0 0
697 1 6.010776035775438 10.676746284207944 1.258071969867226 0 0 0
660 1 5.91079704846035 9.779371447836244 2.099031604327174 0 0 0
699 1 6.679037375929732 10.601826540703414 2.0039223115007943 0 0 0
658 1 6.676947075984388 9.64538474303773 1.3020481112028068 0 0 0
701 1 7.403676706794216 10.614416811480627 1.336124316050258 0 0 0
664 1 7.451775206098158 9.782023219011926 1.9292289820186177 0 0 0
662 1 8.242044573502856 9.74160759534626 1.29792044386343 0 0 0
703 1 8.321137922895502 10.583202859024105 2.0284573079733756 0 0 0
705 1 8.951915544753763 10.50070704122399 1.1757951660337016 0 0 0
668 1 9.0300800595783 9.670480154273296 2.007313694994446 0 0 0
709 1 10.476691113695818 10.56257494146939 1.2191812178087478 0 0 0
666 1 9.674460716827557 9.738412092794238 1.228304743014804 0 0 0
672 1 10.544304688747289 9.678171746590422 1.8295749135450503 0 0 0
707 1 9.695839652460762 10.506777424284572 1.9289499816334779 0 0 0
670 1 11.34617005360635 9.88485915668689 1.1511228784890108 0 0 0
713 1 12.133782963023481 10.65807463090939 1.2474995357586096 0 0 0
676 1 12.1313918825726 9.82911587257843 1.995690874400554 0 0 0
711 1 11.317343628873306 10.510138992415538 2.0166918987051847 0 0 0
717 1 13.7182510319114 10.646529516993091 1.2273978129416119 0 0 0
674 1 12.906407374905775 9.86284417941436 1.2283647282784367 0 0 0
715 1 12.931511830570159 10.5214755983273 2.0088034184677435 0 0 0
680 1 13.754143750329984 9.825447944768136 1.9353461324492796 0 0 0
644 1 -0.2786684546326219 9.90634635364502 1.9353992536557052 0 0 0
678 1 14.446962763967637 9.923504527568692 1.1133725924713678 0 0 0
719 1 14.481894582626403 10.634844946317937 1.8822747274652922 0 0 0
682 1 0.5578454053503455 11.358846827680374 1.1755722614927167 0 0 0
723 1 0.6145890746132232 12.260412338309447 1.899694565768542 0 0 0
725 1 1.3685916863653533 12.122247698252846 1.2497707809632286 0 0 0
688 1 1.1970083905176692 11.384501878779382 2.0319231035315206 0 0 0
686 1 1.9735747409240374 11.287045178459898 1.2428157885620572 0 0 0
727 1 2.0586562736392597 12.115681246797497 2.0199883560957512 0 0 0
729 1 2.799062359940222 12.142149201416363 1.2751897714533615 0 0 0
690 1 3.602138167057816 11.337501377339777 1.290282696044865 0 0 0
692 1 2.814000957029846 11.409481621223701 2.021378765329963 0 0 0
731 1 3.5681986329404807 12.102207457326763 2.0258994333364075 0 0 0
733 1 4.312683691323629 12.26788399914302 1.319298906414677 0 0 0
694 1 5.145180806807982 11.393658316014541 1.1858141776326974 0 0 0
696 1 4.343795678644143 11.282875963127069 1.9862592913128285 0 0 0
735 1 5.0405979316547755 12.163836537090983 1.990212415402186 0 0 0
737 1 6.007187496367335 12.128687932376927 1.1707769512486041 0 0 0
700 1 5.825118831265059 11.492400446303517 1.9720132670445802 0 0 0
698 1 6.7920358687015625 11.380532542758885 1.1129065350282228 0 0 0
739 1 6.6972165114618045 11.985346965003263 2.018967550143341 0 0 0
741 1 7.495253287785867 12.128459291548165 1.281243842681883 0 0 0
704 1 7.483448704142313 11.291155913665069 2.086244570440982 0 0 0
702 1 8.190730256920105 11.3524318220095 1.2560523397917551 0 0 0
743 1 8.247797241245944 12.152930056884365 1.98890806863571 0 0 0
745 1 8.948138203222022 12.114617711070611 1.0945486296856282 0 0 0
708 1 9.003859083529065 11.383238775976956 1.9306618628249264 0 0 0
749 1 10.698814614266627 12.153114818312293 1.1388841042337805 0 0 0
747 1 9.879350215627461 12.222444500676122 1.9894078226308016 0 0 0
712 1 10.595643473561566 11.447363998078835 2.006560707042996 0 0 0
753 1 12.047555135654772 12.224281680956466 1.2358345952501422 0 0 0
710 1 11.234893757440283 11.285415854832937 1.1610874815775312 0 0 0
716 1 12.11604482305204 11.459295092473127 1.9564008183811388 0 0 0
751 1 11.310588581714669 12.172767981856001 1.9776453338018873 0 0 0
714 1 12.855571875719065 11.409845853807617 1.2996118374054229 0 0 0
755 1 12.786902040648428 12.268508415066357 2.093136709692061 0 0 0
720 1 13.733763670904008 11.436888671977218 2.0184811004991348 0 0 0
757 1 13.754572032790946 12.25673467519216 1.251451230031382 0 0 0
684 1 -0.1844863303852244 11.494732347408917 1.8983280814155559 0 0 0
721 1 -0.2806902371676285 12.157327321311143 1.1688646062335355 0 0 0
718 1 14.514980025747889 11.493526148627037 1.2949172282781138 0 0 0
759 1 14.593944483482236 12.172270716964388 2.092941353721372 0 0 0
722 1 0.5690101400855911 12.95156579580648 1.2029637780650422 0 0 0
763 1 0.4364304757022046 13.611678423067058 1.9797063937433483 0 0 0
724 1 -0.3028993709410368 12.976399303126296 1.9198738737961474 0 0 0
728 1 1.374718282163166 12.925412509225698 2.002787048781779 0 0 0
726 1 2.01686267270626 12.829647357587078 1.2307113485984829 0 0 0
767 1 2.1173828584848193 13.772061695285739 1.9184519617804034 0 0 0
765 1 1.3234441598450808 13.742477013514346 1.2831793192457042 0 0 0
730 1 3.5425945648325583 12.881392050705653 1.301797155888938 0 0 0
732 1 2.796766581824093 12.855395174499229 2.03951068046577 0 0 0
771 1 3.649838495245204 13.733543336799393 2.115484633173413 0 0 0
769 1 2.9587605119456244 13.664925657784494 1.3517504793869966 0 0 0
734 1 5.226728669232226 12.952324395605771 1.3228836374370572 0 0 0
736 1 4.3065551270819125 12.989363960733176 2.117084730828812 0 0 0
775 1 5.119315270304958 13.708630709132134 2.058938511796103 0 0 0
773 1 4.361080718326621 13.82681891970357 1.391361300462413 0 0 0
777 1 5.914646445567959 13.699277167320904 1.292168721589346 0 0 0
740 1 5.880537923944338 12.728374563487787 2.02728936599755 0 0 0
779 1 6.580896221662163 13.5940758233738 2.08475729126704 0 0 0
738 1 6.599119819976336 12.968049100100089 1.3173242569778545 0 0 0
781 1 7.477943001505589 13.694453104145722 1.2241291891231176 0 0 0
744 1 7.427234499825394 12.830150331214742 1.9126050641328742 0 0 0
742 1 8.304276685451068 12.946582410842304 1.169300875442839 0 0 0
783 1 8.22739449951548 13.783177720603259 1.8808804678873199 0 0 0
748 1 9.02865413034798 12.911842042209244 1.919392598708407 0 0 0
785 1 9.115181139111101 13.884222198490239 1.1699151298875592 0 0 0
746 1 9.828784676790548 12.913564830516293 1.3254070765766797 0 0 0
752 1 10.616561024673818 12.890446021536157 1.957530251963877 0 0 0
787 1 9.843130167182565 13.717838553747502 1.9699347286400521 0 0 0
789 1 10.593748257211566 13.700339056461772 1.194236726753662 0 0 0
793 1 12.097335603113347 13.685185931218342 1.2015755876687504 0 0 0
750 1 11.356295575529387 13.017076051690733 1.243573415341187 0 0 0
756 1 12.13881137606807 12.994174414449493 2.0069210918990703 0 0 0
791 1 11.257771848746273 13.731925812179316 1.9173175372959799 0 0 0
754 1 13.022104094482295 13.007262720241712 1.1738635574701264 0 0 0
760 1 13.726079072060045 12.880463448183693 2.0067252568618783 0 0 0
797 1 13.764136007414049 13.825646563350276 1.2395683866378011 0 0 0
795 1 13.045591776713245 13.666053540728111 1.9708755264784146 0 0 0
761 1 15.166985473367731 13.852873295151984 1.1681798012897888 -1 0 0
758 1 14.493319896451773 13.02416276744983 1.282892873137157 0 0 0
799 1 14.47561999865001 13.809296022847512 1.9829429282123225 0 0 0
401 1 15.240391362541924 15.21856097556568 1.1788754924170197 -1 -1 0
762 1 0.5378441842798656 14.432538134472978 1.1643118119327547 0 0 0
768 1 1.1468796013671436 14.54014792361464 2.0619727464661137 0 0 0
766 1 2.0290591772349544 14.513861867552382 1.2633484511345519 0 0 0
770 1 3.6244233760789704 14.589216261334293 1.1839210783019998 0 0 0
772 1 2.9106904467327075 14.47846505618094 1.9477977844508239 0 0 0
776 1 4.356220193522767 14.621893674275825 2.0166378304549775 0 0 0
774 1 5.166120234682106 14.50958281551128 1.3282670135123766 0 0 0
778 1 6.722334892969586 14.46157393125634 1.1869437750212652 0 0 0
780 1 6.058054041514115 14.478705395653598 2.0305285883677016 0 0 0
421 1 7.474614510392976 -0.2008338381748984 1.3290732754239027 0 0 0
784 1 7.621822177114725 14.487537093321645 2.0690882652810387 0 0 0
425 1 9.049107722296018 -0.25619802128433905 1.2399157224233477 0 0 0
782 1 8.267105129566737 14.590871827321656 1.2622463098481187 0 0 0
788 1 9.032874565720714 14.460829107318045 2.108868851708673 0 0 0
427 1 9.836830328303385 15.217615593374273 2.0085928941071725 0 -1 0
786 1 9.823556870074423 14.52623711675042 1.2130775664993618 0 0 0
792 1 10.671226238427451 14.517378270510694 2.068774849543466 0 0 0
433 1 12.138821854644501 15.230667963363526 1.2854787610043152 0 -1 0
431 1 11.341360851958864 15.2522980568904 2.0873817308883846 0 -1 0
790 1 11.371312013149662 14.5629875977478 1.212009396697616 0 0 0
796 1 12.161790335543017 14.393138700169594 1.9453538035737132 0 0 0
437 1 13.692603423218017 -0.29441484209879104 1.125431606532382 0 0 0
435 1 12.90367302893393 -0.2877185159154295 2.103853739067006 0 0 0
794 1 12.853584459331607 14.505076148457619 1.2322987028732142 0 0 0
800 1 13.700188420709154 14.620792469687771 1.9765386146860942 0 0 0
764 1 15.206232260220887 14.482041460105695 1.9811372457794012 -1 0 0
798 1 14.438253978755448 14.579031726344908 1.1619966966248432 0 0 0
802 1 0.36131738406795744 0.43400585998034125 2.775975271619212 0 0 0
804 1 -0.23702436536832397 0.4193832684986859 3.625788943281723 0 0 0
803 1 0.4697449952597458 15.229237486122017 3.6923781613252267 0 -1 0
801 1 15.23052909140026 15.230373663439668 2.8657619827899103 -1 -1 0
808 1 1.3196355881758959 0.4980143059938482 3.5895305423610644 0 0 0
806 1 1.917566627253421 0.36990460101781797 2.740872963904832 0 0 0
805 1 1.0292902681244132 -0.28206456824522375 2.7643014790265967 0 0 0
807 1 2.2051455081107387 15.161386974675352 3.7145995379000754 0 -1 0
812 1 2.755855059766727 0.4105529987367488 3.589049430870568 0 0 0
810 1 3.615506563364249 0.5484569838656287 2.9144272938222597 0 0 0
811 1 3.559251178660524 -0.23241128030511987 3.5497642532837412 0 0 0
814 1 5.25662619727444 0.4813324014821294 2.8506946005811575 0 0 0
816 1 4.374067030549756 0.4678543530455954 3.642264009381359 0 0 0
815 1 5.071962245918981 -0.29015620858359675 3.613553904891585 0 0 0
813 1 4.3771353887877265 -0.2705885549591327 2.751099447363533 0 0 0
820 1 5.9742026945267765 0.4550162947442671 3.665554055761546 0 0 0
818 1 6.5915197824921075 0.4899980264094399 2.8269855080211506 0 0 0
824 1 7.501456282160559 0.5670225244123864 3.628217982236196 0 0 0
821 1 7.560007693865202 -0.30173715988509286 2.968426166675977 0 0 0
822 1 8.330489618445942 0.5670089144867465 2.7668344245645193 0 0 0
828 1 9.129144577754811 0.402009712734969 3.6180126417485465 0 0 0
825 1 9.065338109678056 15.24041248168485 2.852040002208539 0 -1 0
826 1 9.859868043751149 0.4617606276897953 2.812838943702608 0 0 0
832 1 10.636836190164608 0.44575217895494457 3.525120662682469 0 0 0
830 1 11.335283216887316 0.4707260512791396 2.8069973557172676 0 0 0
836 1 12.168815003528028 0.6446374214744909 3.5466348041173728 0 0 0
834 1 12.863758592161275 0.3902321264847648 2.8385525688187965 0 0 0
840 1 13.804280489340414 0.44295161423746454 3.566989753865713 0 0 0
835 1 12.834655132551806 -0.2802525237397616 3.592528799005353 0 0 0
838 1 14.665308923996136 0.49077846473870324 2.8459253961216042 0 0 0
843 1 0.44769727560284345 1.2111555438510742 3.7933551678784934 0 0 0
842 1 0.5150362331400854 2.113826523146318 2.7681995580865784 0 0 0
841 1 -0.2815870352352646 1.3209800752139627 2.673271080563515 0 0 0
845 1 1.1734363546225148 1.151708761297699 2.8714605283340067 0 0 0
848 1 1.2774748845955561 2.026646020236508 3.54097830460386 0 0 0
847 1 1.9797097971272621 1.265087367806123 3.6491902161520007 0 0 0
846 1 2.0689325846612308 1.9520536077412998 2.7705189414651796 0 0 0
851 1 3.636948364393629 1.2906956900697149 3.517861480158007 0 0 0
849 1 2.6511431241289136 1.110397700737686 2.807276115686395 0 0 0
850 1 3.4197679346059298 1.9692121261543956 2.7829790732713575 0 0 0
852 1 2.7240122679279413 1.944813573174962 3.529796870189498 0 0 0
853 1 4.436341789203602 1.1573113027948823 2.672608642456113 0 0 0
854 1 5.172799892529547 1.9878941198254698 2.830268920806675 0 0 0
855 1 5.156110677181536 1.2787423511703524 3.6252331958478363 0 0 0
856 1 4.420860160574733 1.9604967316056707 3.5963757674532304 0 0 0
857 1 5.9412083399318405 1.2339981509681435 2.904941321011943 0 0 0
860 1 5.956824022856948 1.9696062880221628 3.6012539191774087 0 0 0
858 1 6.776141957659979 2.0078267477283727 2.9251004167207433 0 0 0
859 1 6.785748854248495 1.3406833465570183 3.6187666904343327 0 0 0
861 1 7.539143622737468 1.3363011986069029 2.8204977671857407 0 0 0
864 1 7.552452615766752 2.019584979485855 3.6323966367993816 0 0 0
862 1 8.287584707376023 1.985590627212935 2.7235134955538776 0 0 0
863 1 8.215297532625321 1.21863783893438 3.6184777909964096 0 0 0
865 1 9.13604209976532 1.2728451926119895 2.7804779893106666 0 0 0
868 1 9.000538631019761 2.040890199727223 3.4981489169973314 0 0 0
866 1 9.85290045598613 2.062592033887647 2.77442627785789 0 0 0
867 1 9.912334778563611 1.147618676960891 3.552452054880915 0 0 0
869 1 10.618252958634113 1.1976882359092165 2.726060529807193 0 0 0
872 1 10.55234248638926 2.121788004081863 3.527840446913988 0 0 0
871 1 11.30947565509284 1.27213089368859 3.589973020906421 0 0 0
873 1 12.111040669687274 1.3524320466552622 2.773684365122059 0 0 0
870 1 11.269650362107015 2.041844062416126 2.6735073944549645 0 0 0
876 1 12.098869561541662 1.9596570807797096 3.5826571694628075 0 0 0
875 1 13.006444259396265 1.278119536880267 3.5053699757680157 0 0 0
874 1 13.066630264416023 2.0447537587655584 2.7168190052131576 0 0 0
880 1 13.733822175721652 2.1296973423128893 3.6410553289073366 0 0 0
877 1 13.756681872269656 1.374259159953772 2.8130191170467573 0 0 0
844 1 -0.2584126987342945 1.9894308234752534 3.68670038661769 0 0 0
879 1 14.471912392132278 1.1937206006912182 3.581200985338295 0 0 0
878 1 14.5195615005243 2.104691319072962 2.5909989033372 0 0 0
882 1 0.5270074598161717 3.601576575463437 2.749223192601358 0 0 0
883 1 0.5310742901980933 2.797256879895539 3.6005734686820485 0 0 0
884 1 -0.2577236629665434 3.5386663920258696 3.607271742293083 0 0 0
885 1 1.300323185122457 2.862325383767675 2.849474099636453 0 0 0
888 1 1.1682120760194448 3.594490993333885 3.627599324062045 0 0 0
886 1 2.0099950992029894 3.6285296394186624 2.8539159327255423 0 0 0
887 1 2.1138015028388444 2.81735641453801 3.6403149070723466 0 0 0
890 1 3.6272678596321 3.4729529324087105 2.9801035731003673 0 0 0
889 1 2.7243624240824538 2.841319645659077 2.8113381008257523 0 0 0
891 1 3.53592751452038 2.70175134098253 3.620195929170721 0 0 0
892 1 2.8487491227480684 3.552712837443769 3.695796881905598 0 0 0
893 1 4.390481969658553 2.795192401728028 2.7773162439784613 0 0 0
896 1 4.448207394019961 3.5483301031244157 3.688370608773117 0 0 0
894 1 5.181359273293217 3.456643264295122 2.7808408953383825 0 0 0
895 1 5.14248788531557 2.7380154803762973 3.6792312521866375 0 0 0
897 1 5.911814430061192 2.720452160660521 2.868441382296813 0 0 0
900 1 5.893554573550175 3.6025483846726787 3.7117999725988415 0 0 0
898 1 6.6647864684583675 3.4722518625593612 2.764058525460176 0 0 0
899 1 6.733469630142556 2.903098905620197 3.6063673304781476 0 0 0
901 1 7.496578326073483 2.647998186413877 2.7261352915141774 0 0 0
904 1 7.506421618811796 3.634247852467879 3.5595248658368344 0 0 0
902 1 8.2504343239724 3.480447777116652 2.6858416529853586 0 0 0
903 1 8.175211219258287 2.7569997000361988 3.595375763873413 0 0 0
905 1 9.060243020899229 2.766521716033747 2.723862387422778 0 0 0
908 1 8.759579381032466 3.522655081573172 3.5605227332969216 0 0 0
907 1 9.686465614334217 2.7680346181906095 3.4825600989297345 0 0 0
906 1 9.774708404800748 3.572393500031428 2.7280805496396012 0 0 0
909 1 10.646544638329857 2.879841119478724 2.7581618856787062 0 0 0
912 1 10.69963531532349 3.5077914181585714 3.590355320138854 0 0 0
913 1 12.193461991605062 2.711706816724991 2.810557085031528 0 0 0
910 1 11.41307672628616 3.5525553523522926 2.8541862942256184 0 0 0
911 1 11.41165252477348 2.649485935194773 3.503452366502851 0 0 0
916 1 12.182928703668512 3.5043609356504906 3.5702102693481383 0 0 0
914 1 13.067010612744795 3.4989135426887574 2.8957107515924854 0 0 0
915 1 12.87277088604986 2.782867750481052 3.560311334125858 0 0 0
920 1 13.8152755505001 3.53888966516252 3.5801318762239016 0 0 0
917 1 13.761717939882018 2.805534687233843 2.74610434906617 0 0 0
881 1 15.23098862512493 2.7348552891060383 2.857983443679823 -1 0 0
918 1 14.56409787898906 3.4911368270215886 2.91531765952836 0 0 0
919 1 14.60420965782776 2.799692741557394 3.6821594633494814 0 0 0
922 1 0.3711016740293528 5.1707985578112154 2.8999493328629953 0 0 0
923 1 0.4272626077046736 4.378488678948416 3.5669251568982054 0 0 0
928 1 1.230720974444244 5.157278423807984 3.5596893273631878 0 0 0
925 1 1.1558113592241073 4.4361193495395295 2.819077600890709 0 0 0
927 1 1.955329174524096 4.2789614346306735 3.529961707232498 0 0 0
926 1 1.991922656268565 5.108468983609238 2.7521867340112074 0 0 0
929 1 2.7950373747264288 4.323787528276851 2.946705180578026 0 0 0
931 1 3.565802809414595 4.3451508946339095 3.653039240012687 0 0 0
930 1 3.6655906409003784 5.079307125389737 2.8983206128371988 0 0 0
932 1 2.795494917294942 5.086870913189176 3.569070240013557 0 0 0
936 1 4.3812254641682165 5.023605499549354 3.637806750457326 0 0 0
933 1 4.348178024126773 4.2440714282379455 2.9214080891471212 0 0 0
935 1 5.1529126529456635 4.3485326383369465 3.5891938924424345 0 0 0
934 1 5.058075967006704 5.0971455442261515 2.822557671553969 0 0 0
937 1 5.860145643481736 4.258359442259454 2.7857398316969584 0 0 0
940 1 5.790799936195382 5.169348132972419 3.574369364814523 0 0 0
938 1 6.520377350098816 5.04987092976241 2.735331625407291 0 0 0
939 1 6.693861528377096 4.334659998807101 3.4895249712374024 0 0 0
941 1 7.372798735236536 4.260612093130156 2.752001812295324 0 0 0
944 1 7.434874412283621 5.039312247502425 3.4506586327376034 0 0 0
943 1 8.23532634456253 4.425675806591816 3.4772585047650812 0 0 0
942 1 8.2753768676614 5.157754461797989 2.7892338131254792 0 0 0
945 1 9.064458303428339 4.338617878437422 2.9147364259709003 0 0 0
948 1 9.017208086035783 5.287899620600645 3.6886475332411157 0 0 0
947 1 9.804621007047022 4.2603867141020615 3.5976291523748385 0 0 0
946 1 9.814409835774537 5.15600391777682 2.878144833011387 0 0 0
949 1 10.544842636104065 4.210150213415038 2.9087978108973385 0 0 0
952 1 10.529092328782252 5.045222287914897 3.633562019805419 0 0 0
950 1 11.307612233518817 5.088941153870835 2.8980095381513578 0 0 0
951 1 11.3841371490861 4.333695635540586 3.702957167780858 0 0 0
953 1 12.068793956846491 4.320099570721894 2.960668391539541 0 0 0
956 1 12.155493355532187 5.083910401830035 3.6125506740415325 0 0 0
954 1 13.042060742331174 5.128593603008032 2.9049895832643635 0 0 0
955 1 13.041138758515618 4.277406811852146 3.570835719218816 0 0 0
960 1 13.770261713087269 5.131265051984615 3.554986171534389 0 0 0
957 1 13.826424997558956 4.338765179798672 2.816602297119763 0 0 0
921 1 -0.3134749198455031 4.1842179772412385 2.828413787140978 0 0 0
924 1 -0.3117348320627116 5.134809721430129 3.5873605032946596 0 0 0
958 1 14.62486847670484 5.0541032118545886 2.7769249783306043 0 0 0
959 1 14.527587746791156 4.282589542408692 3.599529218538104 0 0 0
963 1 0.4316019098876994 5.919264208860946 3.5977965681802164 0 0 0
961 1 15.156931161186321 5.93121900814546 2.810582191620503 -1 0 0
965 1 1.2513822528729344 5.933850542490595 2.8640150014800647 0 0 0
967 1 1.9495617419324707 5.83724021472141 3.585181330754128 0 0 0
966 1 1.9342542443954085 6.796812008524742 2.770481731394755 0 0 0
968 1 1.1924966405066433 6.690085894493757 3.592999477415604 0 0 0
969 1 2.7626739151441893 5.8787991077034905 2.6928790893724988 0 0 0
971 1 3.5332675141360497 5.888719461617976 3.4198290737554724 0 0 0
972 1 2.6906412688756483 6.620228005245386 3.4373516106269393 0 0 0
970 1 3.57889459837431 6.662403405515155 2.6504855801021368 0 0 0
973 1 4.329325009482408 5.841718726012631 2.7740446799837133 0 0 0
975 1 5.036137945642794 5.784015611146339 3.56962153737869 0 0 0
974 1 5.188898848988352 6.5846458497782185 2.7305110480925148 0 0 0
977 1 5.904320566338926 5.863044012948141 2.7659924751479847 0 0 0
980 1 5.830353959609624 6.628763935401633 3.554713054393281 0 0 0
979 1 6.619692443989661 5.898422607142569 3.5712560258882835 0 0 0
978 1 6.598064760587153 6.6308520981871615 2.776210258973584 0 0 0
981 1 7.377057261746119 5.8317835777781495 2.76583633192511 0 0 0
984 1 7.387333163269497 6.695153162081448 3.5525054944629577 0 0 0
983 1 8.072035653791417 5.858943568765958 3.574541597667195 0 0 0
985 1 9.057501919291362 5.865779067540875 2.7592647343216146 0 0 0
988 1 8.983934877188368 6.685355609431777 3.525187241840569 0 0 0
982 1 8.131825705869797 6.604086638778238 2.7488311934350156 0 0 0
989 1 10.558418394173263 5.917785299504246 2.7746142955016593 0 0 0
987 1 9.809462750980323 6.044099726161073 3.541717694091464 0 0 0
986 1 9.860642095728107 6.602229813467357 2.540652913827544 0 0 0
992 1 10.699674678934613 6.702959705719468 3.5177811363425757 0 0 0
993 1 12.119642806154118 5.784385196711161 2.907398659136521 0 0 0
991 1 11.325588940752876 5.9079501976323066 3.54095075444832 0 0 0
996 1 12.213306206239881 6.620231549829239 3.531554476350691 0 0 0
990 1 11.297688644700777 6.640751774663248 2.751199566610986 0 0 0
995 1 12.88148982600099 5.890747002185769 3.64081949156548 0 0 0
997 1 13.826773858276752 5.834713919749068 2.8818233193889613 0 0 0
994 1 13.08852953017717 6.589266209912569 2.8664068444751662 0 0 0
1000 1 13.757385090030645 6.620551455004899 3.6537461954270025 0 0 0
964 1 15.196899369047962 6.635641043449561 3.619607170369902 -1 0 0
999 1 14.4612469214041 5.849884041536621 3.6522002879026303 0 0 0
998 1 14.431038095837273 6.675377436873419 2.8314350557467844 0 0 0
962 1 0.4611877217834369 6.618377279695045 2.8479362727965865 0 0 0
1003 1 0.4570918059253737 7.411509302551847 3.605313445689056 0 0 0
1005 1 1.1351696934483568 7.469447234862963 2.9324046856657047 0 0 0
1007 1 1.9637928423524191 7.499368075436631 3.594753399051415 0 0 0
1009 1 2.633852490003047 7.71254035074812 2.75615088996826 0 0 0
1011 1 3.555751872810335 7.601602366830761 3.6147856716589724 0 0 0
1010 1 3.659370695009305 8.231724379896402 2.8321167030779915 0 0 0
976 1 4.291235702333648 6.603898187587002 3.5719828964565115 0 0 0
1013 1 4.363037480598388 7.423300011742434 2.7973694205303166 0 0 0
1015 1 5.087886926566149 7.422598491358764 3.4562677317648385 0 0 0
1016 1 4.408566696874645 8.257148794936196 3.6271213017993142 0 0 0
1017 1 5.906983967633411 7.415899675401625 2.705965051002256 0 0 0
1019 1 6.590278717191176 7.421358065216411 3.58398668898684 0 0 0
1021 1 7.395062829252016 7.34144221518253 2.8211855138403794 0 0 0
1023 1 8.185495668097712 7.431185512073607 3.6273612235813952 0 0 0
1025 1 9.03722684147326 7.3171361797668375 2.671375637516562 0 0 0
1028 1 8.9601000506904 8.16336178989248 3.4994717863849436 0 0 0
1027 1 9.785990680786302 7.369639095186581 3.4113001874864537 0 0 0
1029 1 10.579936815961677 7.437442773863678 2.7654661578473414 0 0 0
1032 1 10.551234407049375 8.165254519721607 3.6216893690462637 0 0 0
1033 1 12.10013554026935 7.44778825770191 2.8002446747178227 0 0 0
1031 1 11.306014531101237 7.458102569017715 3.464815998687761 0 0 0
1035 1 12.988596538566778 7.389895492191151 3.5972705631331086 0 0 0
1037 1 13.712577343843119 7.573956909729164 2.7080914625512906 0 0 0
1001 1 15.204463829803007 7.4364264645662725 2.7909245238060514 -1 0 0
1039 1 14.438676363414796 7.479239989481823 3.4701194865437666 0 0 0
1002 1 0.31593811061442345 8.208493301306934 2.7873271963099358 0 0 0
1043 1 0.2604100296539533 9.09614482500147 3.772079867978203 0 0 0
1041 1 15.139647410035575 9.065911514013468 2.8380084174365323 -1 0 0
1008 1 1.0800546400145943 8.23595548930722 3.697974669841199 0 0 0
1006 1 1.820917120969841 8.271028805268294 2.8769020862287755 0 0 0
1045 1 1.1359930310775919 8.986011572996617 2.838565865470313 0 0 0
1047 1 1.9842830539174239 9.031163944849034 3.624431998194415 0 0 0
1012 1 2.702748779882673 8.221848541882345 3.5913088370445196 0 0 0
1049 1 2.7699805753156257 8.907802606962559 2.8667209180239315 0 0 0
1051 1 3.612652578892004 8.845348647762638 3.6843200767397377 0 0 0
1014 1 5.0998314567733285 8.262418130542152 2.8637981890429414 0 0 0
1053 1 4.404537299922808 8.982167133221132 2.7569604788694493 0 0 0
1055 1 5.21585786574947 9.048338472375328 3.5637266190908594 0 0 0
1020 1 5.953592841045389 8.21537283239573 3.586629055492556 0 0 0
1057 1 5.918498637510858 9.009384439229855 2.8059089640090713 0 0 0
1018 1 6.681256555121673 8.260070193691789 2.80417584631044 0 0 0
1024 1 7.501828967294511 8.234090670210396 3.4523143934790177 0 0 0
1059 1 6.7245103656610326 9.098151441397516 3.542436036428105 0 0 0
1061 1 7.488714283373221 9.04783057979721 2.7115582493903023 0 0 0
1022 1 8.185922251529941 8.056488596304813 2.740712458847475 0 0 0
1063 1 8.219655041397822 8.995069912151802 3.6144688799241766 0 0 0
1065 1 9.02195833554131 8.983702155687762 2.7420256060766626 0 0 0
1026 1 9.933078252586728 8.261696459184922 2.713012520716172 0 0 0
1069 1 10.611155552481911 9.026730175689192 2.784280249753082 0 0 0
1067 1 9.852636119631082 9.03520192478339 3.426499861536889 0 0 0
1036 1 12.065720312482977 8.12440914113457 3.570157284677745 0 0 0
1030 1 11.26275232220592 8.249515414747048 2.7446157372484867 0 0 0
1073 1 12.191522095118618 9.030265206702154 2.82490879228042 0 0 0
1071 1 11.287060752118052 8.988692572022948 3.581497478797236 0 0 0
1077 1 13.632484960698203 8.874520888850114 2.7941463248098333 0 0 0
1040 1 13.697312616256038 8.155637188352419 3.6943615415848106 0 0 0
1034 1 12.857684156091114 8.14750351319713 2.7452539744655287 0 0 0
1075 1 13.008344936669705 8.923030697836381 3.5795724470288652 0 0 0
1004 1 -0.2713121172436267 8.21394500171321 3.561866434334463 0 0 0
1038 1 14.439866049480774 8.369002558952158 2.8323646582379314 0 0 0
1079 1 14.388705488778829 9.258515964777537 3.5765326786634994 0 0 0
1042 1 0.3539049246274314 9.76004330846521 3.0145468860623597 0 0 0
1083 1 0.41425994386620535 10.574631664549354 3.551893902260489 0 0 0
1081 1 15.243208258066336 10.555249296599584 2.7521364186643202 -1 0 0
1048 1 1.202841450988049 9.802364953976742 3.597189135785996 0 0 0
1085 1 1.338588538123967 10.578246157559082 2.826355036386785 0 0 0
1046 1 2.1252357385013876 9.945652524579135 2.8745486546046397 0 0 0
1087 1 1.919776928785887 10.573659243652003 3.680392232578434 0 0 0
1052 1 2.846027783559499 9.774592480078127 3.6573371363932843 0 0 0
1050 1 3.6483593858303247 9.637907892189414 2.861303385982014 0 0 0
1089 1 2.881686396404344 10.606757623744475 2.6918834204674855 0 0 0
1091 1 3.5425383724482704 10.54096071617763 3.5441926349657273 0 0 0
1056 1 4.3471385453822275 9.756832747813789 3.602620274531298 0 0 0
1093 1 4.390949162109334 10.457224866785008 2.733771683321267 0 0 0
1095 1 5.061568791330271 10.487080187542215 3.6693830116819486 0 0 0
1054 1 5.220810795120866 9.717979404516605 2.8475120158151683 0 0 0
1060 1 5.947043685956336 9.71899277165831 3.639733612559498 0 0 0
1097 1 5.944562970958412 10.543131230519322 2.7825206795053137 0 0 0
1099 1 6.698381353758903 10.636163201555185 3.622705182725251 0 0 0
1058 1 6.733601234640012 9.901137648605573 2.855824055579491 0 0 0
1064 1 7.473315249026203 9.78907627814996 3.4964525606021946 0 0 0
1101 1 7.492073013329848 10.522483949307752 2.7387995902587297 0 0 0
1062 1 8.368426258764096 9.721537344347208 2.7362634984692926 0 0 0
1103 1 8.256577869027137 10.544135762257987 3.5417790178045756 0 0 0
1105 1 9.019597748239068 10.463424804764259 2.8638945488523535 0 0 0
1068 1 9.003282191132541 9.688099136397291 3.530738188722615 0 0 0
1066 1 9.705732674777575 9.741025771069282 2.716796662336129 0 0 0
1072 1 10.573393321128634 9.847351275877259 3.568174705676028 0 0 0
1107 1 9.79831448399888 10.586069102612203 3.5955059993290672 0 0 0
1109 1 10.489631302373823 10.625907260513078 2.703307214341875 0 0 0
1070 1 11.201138216029346 9.855352231287366 2.8250956279796493 0 0 0
1113 1 12.186314148046392 10.48268216561788 2.809940237921592 0 0 0
1076 1 12.149450239022983 9.85520944374516 3.5271081504896356 0 0 0
1111 1 11.430211568865186 10.56302796798937 3.564172701846567 0 0 0
1074 1 13.012945432885516 9.835576946857387 2.7120515181278186 0 0 0
1115 1 12.87945645880669 10.603947025464933 3.5800742179319767 0 0 0
1117 1 13.718067094259847 10.624702762298337 2.793697707761837 0 0 0
1080 1 13.565496485754075 9.814428746800196 3.569395249405466 0 0 0
1044 1 15.191426031412743 9.855477831047065 3.7315268220889015 -1 0 0
1078 1 14.479447015212266 9.894124120732108 2.7457679957444983 0 0 0
1119 1 14.450875601306294 10.617557169696234 3.476135546149738 0 0 0
1082 1 0.402566675778981 11.325214577026117 2.8076769079744004 0 0 0
1123 1 0.4272107588119476 12.126965492942464 3.484623005565001 0 0 0
1084 1 -0.28684789657045423 11.369779535761943 3.600117963448999 0 0 0
1125 1 1.1503400877130108 12.149716279720131 2.782944354830347 0 0 0
1088 1 1.2825761743082031 11.377875870194142 3.5430321978757635 0 0 0
1086 1 1.9143618045678208 11.362361106719842 2.8048122352708256 0 0 0
1127 1 1.9507974106551376 12.096492180794005 3.5023703443934835 0 0 0
1129 1 2.712701681490769 12.068506317825083 2.7945419958210267 0 0 0
1090 1 3.7165987969020247 11.27386968171976 2.78433801484174 0 0 0
1092 1 2.7602745489923053 11.302659391454075 3.578792455731235 0 0 0
1131 1 3.5873607039107736 11.979978411236672 3.6607943797467297 0 0 0
1096 1 4.306297234456524 11.299280885376437 3.5787601502019446 0 0 0
1133 1 4.233092960637582 12.049758331239055 2.7731962751756067 0 0 0
1135 1 5.046442768140367 12.041351938404343 3.5849199957251807 0 0 0
1094 1 5.0215932602382995 11.355943831418838 2.7901330684815338 0 0 0
1100 1 5.908605397347843 11.352155584433067 3.602395544749705 0 0 0
1137 1 5.876048203955212 12.133617361805342 2.9413646316302233 0 0 0
1098 1 6.689801264090322 11.321865867140737 2.8364309859889008 0 0 0
1139 1 6.7758092316869725 12.160339053478602 3.675966075077907 0 0 0
1104 1 7.529450134659794 11.427734295048975 3.5061380362261363 0 0 0
1141 1 7.428570145768025 12.093001612257666 2.723232602356096 0 0 0
1143 1 8.26535517662288 12.350436456681969 3.6622136440263087 0 0 0
1102 1 8.329329861248734 11.3604868674596 2.7264876943608893 0 0 0
1145 1 8.988585181262106 12.199112124496956 2.650394346268382 0 0 0
1108 1 9.020796871449932 11.39958234704396 3.5444580474959233 0 0 0
1147 1 9.766756908575328 12.179704088686265 3.397728623647044 0 0 0
1149 1 10.61797544994075 12.110197834557631 2.82944529951055 0 0 0
1106 1 9.685600101594463 11.312139825991189 2.70157309364424 0 0 0
1112 1 10.548947917191768 11.336632771236275 3.4768664260686624 0 0 0
1110 1 11.429798646197291 11.195139346640484 2.7840164550034396 0 0 0
1116 1 12.149569297302904 11.451382665340002 3.6011549382956716 0 0 0
1151 1 11.335665971586316 12.175192074385723 3.5713161771659876 0 0 0
1153 1 12.077170732727499 12.053410529943974 2.745563386276174 0 0 0
1114 1 12.90308770433678 11.263753723384198 2.7335983180496433 0 0 0
1155 1 12.913281842780474 12.138176083347883 3.421464428416531 0 0 0
1157 1 13.743936943629162 12.101615807528315 2.774119414633636 0 0 0
1120 1 13.689657681314117 11.308643255162629 3.459564184393376 0 0 0
1121 1 -0.28126039153411436 12.210154675735097 2.807455080845241 0 0 0
1118 1 14.569225471365222 11.328022857817682 2.688249035632954 0 0 0
1159 1 14.52798240662656 12.021160399465554 3.612430022748214 0 0 0
1122 1 0.40358883312360194 12.982802246570877 2.7982415591879706 0 0 0
1163 1 0.5216102611626532 13.76777610886927 3.472343938263207 0 0 0
1124 1 -0.23264237728118914 12.997457781293818 3.646971213798053 0 0 0
1161 1 15.182094907692516 13.633283085801231 2.783831853155284 -1 0 0
1128 1 1.1966912150333369 12.894195288721981 3.541459301100056 0 0 0
1165 1 1.2418022980137136 13.682451236267951 2.6895141342215023 0 0 0
1126 1 2.1476325581009332 13.05203658229405 2.8042315806640508 0 0 0
1167 1 2.11677808498205 13.77391987826708 3.6093627781730233 0 0 0
1132 1 2.768607152020722 12.862150213300506 3.5778936379173047 0 0 0
1130 1 3.4477024996350396 12.938427582417592 2.794648551386488 0 0 0
1169 1 2.8445418301548386 13.806281629218912 2.684021727406185 0 0 0
1171 1 3.732554316722031 13.64637730523981 3.65575803716833 0 0 0
1136 1 4.389520408994969 12.853757202959503 3.6352156561935156 0 0 0
1134 1 5.0526784807893 12.969350395210267 2.872996281203314 0 0 0
1175 1 5.139391163030668 13.836606484749776 3.56407624476689 0 0 0
1173 1 4.4140366369142985 13.711801381302788 2.856933456586242 0 0 0
1140 1 5.782027430693311 13.010704683234593 3.6781425957704452 0 0 0
1177 1 5.906194574246124 13.596404397028337 2.767390753108531 0 0 0
1138 1 6.6871847598675185 12.765102860497684 2.8015384181638225 0 0 0
1179 1 6.762982972644192 13.792251948670433 3.4576234158753256 0 0 0
1144 1 7.4448963123454135 12.96729580776125 3.651963164383248 0 0 0
1181 1 7.471967390914946 13.66908435442813 2.641366024500042 0 0 0
1183 1 8.250697089404767 13.735103659335053 3.64843083901243 0 0 0
1142 1 8.33142239410165 12.94492565412192 2.658646706912549 0 0 0
1148 1 9.046715764763885 13.014436300180563 3.757729333263037 0 0 0
1185 1 8.960773330745841 13.663790901427134 2.8380669795397333 0 0 0
1146 1 9.742847136416461 12.953062092290637 2.7182752132416033 0 0 0
1152 1 10.547759835477063 12.955773703891541 3.546566907285658 0 0 0
1189 1 10.634775320658633 13.730002007858985 2.8828763715165633 0 0 0
1187 1 9.881107640025679 13.739933260740916 3.673657485621365 0 0 0
1150 1 11.381809971864982 13.001842944180751 2.726956973977393 0 0 0
1156 1 12.077098295254675 13.032194299682018 3.5410233640514943 0 0 0
1193 1 12.081551205743548 13.746501060854918 2.7193716166374107 0 0 0
1191 1 11.343127898139198 13.773322650851302 3.5911712625202172 0 0 0
1154 1 12.841107673683286 13.004374642670864 2.7749777932170625 0 0 0
1195 1 12.909672253270543 13.737791811445682 3.5258120975568543 0 0 0
1197 1 13.758594290706235 13.665772433231382 2.6496959902268036 0 0 0
1160 1 13.589987883775443 12.923180075208855 3.385176392605402 0 0 0
1158 1 14.42179327237595 12.900757132430389 2.882060560726727 0 0 0
1199 1 14.554437971093442 13.69614686969582 3.5315874762775015 0 0 0
1162 1 0.33608924034780696 14.399857294543992 2.7022672608779486 0 0 0
1164 1 -0.30102196862900216 14.449203279711178 3.5375410077455958 0 0 0
1168 1 1.3221908602988206 14.518031215609689 3.630135243407332 0 0 0
1166 1 1.9990704037247147 14.392933484840537 2.7379367234982714 0 0 0
809 1 2.798532478016651 -0.3091641907932073 2.750125852525295 0 0 0
1170 1 3.696033025489789 14.516004035237003 2.8669436131294255 0 0 0
1172 1 2.898923168561088 14.39265719005525 3.5863779525153383 0 0 0
1176 1 4.343671297033974 14.504553642771075 3.702234893215274 0 0 0
1174 1 5.098130384051462 14.501819906256028 2.777034119054365 0 0 0
817 1 5.972797432675455 -0.3088283253569675 2.877856098032175 0 0 0
1180 1 5.791481464242498 14.526568762184937 3.6507281059466634 0 0 0
819 1 6.674327736608147 -0.3023577818237726 3.606163800183602 0 0 0
1178 1 6.8134911216086165 14.589924706952399 2.8056057483987873 0 0 0
1184 1 7.46086505985122 14.469219673360598 3.6792644173099527 0 0 0
823 1 8.299529297335088 -0.2922910031359002 3.6494548016959447 0 0 0
1182 1 8.330111122430871 14.453663238814642 2.856445433655054 0 0 0
1188 1 8.98572333878585 14.458962390687915 3.649746087893101 0 0 0
829 1 10.519680668510723 -0.2733558700903412 2.7553574113058685 0 0 0
827 1 9.870370943799799 -0.29655407482209856 3.622877983697657 0 0 0
1186 1 9.754563459867164 14.453455600153802 2.819787775797271 0 0 0
1192 1 10.559253207751194 14.566333208303792 3.593232841783429 0 0 0
831 1 11.413344279029218 -0.2619554261431891 3.573984557019729 0 0 0
833 1 12.106306237316712 -0.2769136062050695 2.7519950564220705 0 0 0
1190 1 11.372954113611325 14.462886865513543 2.805532741263652 0 0 0
1196 1 12.159396655580714 14.387337515170195 3.5761362911329573 0 0 0
837 1 13.669928449058041 -0.23521564707272374 2.921221439692188 0 0 0
1194 1 12.814619554051436 14.571371260926654 2.832476760022416 0 0 0
1200 1 13.711073755411586 14.444504959635239 3.533665066554812 0 0 0
839 1 14.526760718984484 -0.28116127557221693 3.5776240112459403 0 0 0
1198 1 14.436923573842101 14.661262486993735 2.7688647836252014 0 0 0
1202 1 0.4284188340272911 0.4872549932315413 4.435201680450097 0 0 0
1203 1 0.6464852737303702 15.243644064418842 5.086675434466341 0 -1 0
1204 1 -0.23258896041230134 0.44941397419924856 5.258520701886767 0 0 0
1208 1 1.3039785605279073 0.5955631221780193 5.190232091825663 0 0 0
1205 1 1.2917841343293468 -0.19124570097574908 4.3177332404928235 0 0 0
1206 1 2.0106456930165453 0.44265499298559274 4.405822374067626 0 0 0
1210 1 3.535634928213946 0.427962499238177 4.326206994421026 0 0 0
1212 1 2.8820177992507836 0.45939403858844585 5.176136293317767 0 0 0
1209 1 2.826572759463144 15.166387999027577 4.569394027320009 0 -1 0
1211 1 3.6003893505988307 -0.2649640507545455 5.19460157386385 0 0 0
1216 1 4.3607913797621025 0.5070585872900193 5.16057331868941 0 0 0
1214 1 5.164875545252844 0.46531300822722166 4.368393368802561 0 0 0
1220 1 5.8742577538028575 0.47388841935005965 5.135130519409658 0 0 0
1218 1 6.681224570126089 0.5274583170870123 4.402275621533065 0 0 0
1219 1 6.5525927804819775 -0.28188861058351034 5.04010471490617 0 0 0
1215 1 4.9982169233058436 -0.30176823506710915 5.168843569543764 0 0 0
1224 1 7.514351601705171 0.35030958449370075 5.231537410229652 0 0 0
1222 1 8.347992102214096 0.39070794443518375 4.41806524795665 0 0 0
1228 1 9.09785283349509 0.5720192712296751 5.213246459301264 0 0 0
1226 1 9.885503903148528 0.5066123897292073 4.39081002653019 0 0 0
1232 1 10.508953282587242 0.40687057968580953 5.2725600139719315 0 0 0
1267 1 9.800705675233402 1.2651682232426675 5.081744999306727 0 0 0
1227 1 9.799116975158043 15.229919651538644 5.101835725623728 0 -1 0
1230 1 11.281064546500431 0.5809166221570624 4.45952120402597 0 0 0
1236 1 12.193472583674406 0.5862919021978916 5.161140037565137 0 0 0
1234 1 12.934910038398112 0.5932067673939881 4.44724819461963 0 0 0
1240 1 13.705972907648153 0.5616972137001598 5.158791515056222 0 0 0
1237 1 13.663091206473386 -0.15155550639742751 4.418952237929805 0 0 0
1238 1 14.520787342466562 0.3942380262047125 4.330701941019097 0 0 0
1239 1 14.466694299036753 -0.2211486212217806 5.135797259111031 0 0 0
1243 1 0.48516400081372946 1.3181016348243049 5.171813329923819 0 0 0
1242 1 0.5486712065931482 2.0912941974229717 4.428091259711839 0 0 0
1247 1 2.088096414688704 1.24576045517693 5.1036707969537884 0 0 0
1248 1 1.2660185654737943 2.031264675617517 5.147668555324117 0 0 0
1245 1 1.2389842619388785 1.3003012336709645 4.41630050785006 0 0 0
1246 1 2.0552790442032443 2.110686255554156 4.421874942887128 0 0 0
1251 1 3.408578773099008 1.2452066817315504 5.112073759950594 0 0 0
1249 1 2.7175649842058243 1.2357552442587603 4.329225100625425 0 0 0
1250 1 3.3986693633151046 2.0428953632758806 4.371456240487873 0 0 0
1252 1 2.8078115100623173 1.9831319432534062 5.291633744583877 0 0 0
1253 1 4.1981717228072375 1.2260834367770745 4.367437135378267 0 0 0
1255 1 5.072793212831642 1.2419827573942623 5.2216058999224195 0 0 0
1256 1 4.345512991672029 1.906209081511804 5.23855454180354 0 0 0
1254 1 5.03466003244288 2.0285863886908433 4.450314895282972 0 0 0
1257 1 5.763546415466776 1.2563988666121177 4.474673514357464 0 0 0
1260 1 6.011095740240001 1.9132945434829471 5.201085291388964 0 0 0
1259 1 6.8401477405192015 1.2729742864480342 5.225292936986459 0 0 0
1258 1 6.711529574160904 2.0827093802256518 4.42642039095526 0 0 0
1261 1 7.508852616957473 1.1706145644513313 4.404044204273582 0 0 0
1264 1 7.5526041942991515 1.9434713818870653 5.132734132918533 0 0 0
1263 1 8.285135033786855 1.1997663605584163 5.172481247353467 0 0 0
1262 1 8.316857193146085 2.0293655442847354 4.43916639775453 0 0 0
1265 1 9.098152571804828 1.2530219979577235 4.361573299935889 0 0 0
1268 1 9.075954259801016 2.0709806641431405 5.139439659879564 0 0 0
1269 1 10.61546278397186 1.2762065325047098 4.278723205045963 0 0 0
1266 1 9.89900229220832 1.9827898740367025 4.374598858665054 0 0 0
1272 1 10.536151358905244 2.0794785824209914 5.2079799314225195 0 0 0
1271 1 11.317529957415438 1.3505041442802586 5.255082347800839 0 0 0
1273 1 12.189252722760148 1.2072949042121168 4.344414404319861 0 0 0
1270 1 11.28515501753322 2.0497334308290642 4.374519882500688 0 0 0
1276 1 12.075577717104682 1.9888917136872037 5.101886169888586 0 0 0
1275 1 12.97000673710561 1.269052264359946 5.185878488235645 0 0 0
1274 1 12.91886336439299 1.8724428359267264 4.335766200533244 0 0 0
1277 1 13.74908818726687 1.1730715281632782 4.400901412519829 0 0 0
1280 1 13.578218209407417 1.9520151441776368 5.077511131049468 0 0 0
1241 1 -0.2925419687624818 1.2282347664458448 4.437776689775699 0 0 0
1244 1 -0.30152530396225546 1.9958539693026136 5.1523708565332536 0 0 0
1278 1 14.463698093877618 1.9964745190117195 4.374243810459579 0 0 0
1279 1 14.498927012060602 1.1763314398245646 5.2284039114706236 0 0 0
1282 1 0.4075058348260391 3.5573044150872444 4.389699006545534 0 0 0
1283 1 0.47961866182733814 2.8901313544681324 5.222498108708472 0 0 0
1284 1 -0.2682529532118979 3.6203665832396963 5.164103980521416 0 0 0
1281 1 -0.24505336724338664 2.803441532648616 4.45417504560062 0 0 0
1285 1 1.2979958234902915 2.788086024769028 4.314386317098901 0 0 0
1286 1 1.955945067605211 3.5863002701511872 4.295742013151512 0 0 0
1287 1 2.0371383748963106 2.8961640777466386 5.202340730520526 0 0 0
1288 1 1.222969222525388 3.575584457982008 5.005679698665492 0 0 0
1289 1 2.8253393928451085 2.8416589784209636 4.450982261071997 0 0 0
1290 1 3.578167504397011 3.519382836399655 4.321920063954728 0 0 0
1292 1 2.866813557496646 3.5155419412603393 5.168228080284621 0 0 0
1291 1 3.54713753541484 2.7186240583795156 5.172086740640831 0 0 0
1293 1 4.215628659863078 2.79823591772064 4.425109381443524 0 0 0
1296 1 4.286975450013761 3.541253086585696 5.1682520853832905 0 0 0
1294 1 5.122327437268739 3.506747000830191 4.494120086020152 0 0 0
1295 1 5.03942324522648 2.6907313639011154 5.197066932544767 0 0 0
1297 1 5.829608678828406 2.656670502271603 4.42128706708321 0 0 0
1300 1 6.040512451074953 3.650783525322349 5.127814031734041 0 0 0
1298 1 6.793056454898959 3.625460036104792 4.293793201217667 0 0 0
1299 1 6.593404518885069 2.823183957337668 5.157271324574871 0 0 0
1301 1 7.427197615460438 2.8433573369496035 4.386536896665735 0 0 0
1304 1 7.331345502145428 3.6429890656949264 5.157411382519274 0 0 0
1303 1 8.295325500534737 2.8647088082802568 5.126763604258775 0 0 0
1302 1 8.128834652830541 3.561901732194925 4.3755111107048394 0 0 0
1305 1 8.992606439614516 2.8615607677881147 4.379299524173872 0 0 0
1308 1 8.97518939732771 3.5974663986706417 5.140622814587691 0 0 0
1307 1 9.756374837191746 2.862979840924377 5.143189333163971 0 0 0
1306 1 9.779522433878789 3.489044994720276 4.321770062833792 0 0 0
1309 1 10.61322609348311 2.802341376877034 4.31075169319109 0 0 0
1312 1 10.555985833154867 3.5467864054360234 5.153273487971752 0 0 0
1310 1 11.464694943277188 3.5232528208024485 4.448995136532667 0 0 0
1313 1 12.146848672451487 2.7160556539449203 4.325963854200699 0 0 0
1316 1 12.156916397031921 3.45948751408651 5.122839453247216 0 0 0
1311 1 11.393070081677973 2.8254936987205084 5.190994781050528 0 0 0
1314 1 12.964649526991433 3.5476998092443557 4.267287140388312 0 0 0
1315 1 12.87586288714678 2.7324934834863543 5.013935493449856 0 0 0
1317 1 13.662604185041381 2.844726556320324 4.356318331022844 0 0 0
1320 1 13.643879610360397 3.5524455745526993 5.256558033441553 0 0 0
1318 1 14.410792910081184 3.6428973129058453 4.531632895169629 0 0 0
1319 1 14.481907952146084 2.7474081409231377 5.156254448430686 0 0 0
1323 1 0.4955949867062601 4.346231329279491 5.184263560572264 0 0 0
1322 1 0.4842335314694013 5.171037653180447 4.430428361673583 0 0 0
1321 1 -0.23062095810380528 4.333483177209191 4.438196632850466 0 0 0
1325 1 1.1593488181884135 4.41856718397046 4.383579992644512 0 0 0
1328 1 1.2638583602898976 5.126860626155237 5.137634857239489 0 0 0
1327 1 1.9620808411722503 4.295039957225727 5.054542625959819 0 0 0
1326 1 1.9481971190313985 5.019775193276024 4.325972809164299 0 0 0
1329 1 2.7826373809779708 4.3389230451564345 4.332899658497522 0 0 0
1332 1 2.7339431095917566 5.148029710587968 5.285701202403971 0 0 0
1330 1 3.4681142704871686 5.107885035330205 4.49600708896012 0 0 0
1331 1 3.6090969707356706 4.339703427489009 5.121665831213682 0 0 0
1333 1 4.274556471185628 4.28288843648846 4.396953997297547 0 0 0
1334 1 5.106872562585843 5.169951777500402 4.320493933273533 0 0 0
1335 1 5.097792116397431 4.309814445622066 5.177007446703116 0 0 0
1336 1 4.299465060747056 5.076554768434376 5.095327876621679 0 0 0
1337 1 5.877395311613636 4.4026209104485865 4.3352308784675415 0 0 0
1338 1 6.663007261171003 5.152091667143046 4.210117087163744 0 0 0
1339 1 6.740612011463166 4.449235838001831 4.909750391657028 0 0 0
1341 1 7.492747541258161 4.462579715169614 4.237838647369925 0 0 0
1344 1 7.502500510111542 5.090614205219594 5.233625801956282 0 0 0
1343 1 8.125925812511422 4.260095769384115 5.153469420769951 0 0 0
1342 1 8.242347508130862 5.009743309301401 4.490568068091069 0 0 0
1345 1 9.001848093027288 4.1745626811416585 4.272458819128986 0 0 0
1348 1 9.015565231913893 5.2536682820889675 5.087788545079843 0 0 0
1347 1 9.815919235463824 4.338837156602992 5.0978296917321355 0 0 0
1349 1 10.515689335291452 4.288101749917709 4.349328067843914 0 0 0
1352 1 10.56821009812068 5.110369280048113 5.126207849215921 0 0 0
1346 1 9.822128475441811 5.119220537757123 4.4215419337822945 0 0 0
1353 1 12.275144859243994 4.278641059828632 4.370315112694263 0 0 0
1350 1 11.320858657728074 5.011777027655462 4.430972024145932 0 0 0
1356 1 12.104663124549532 5.015385871378843 5.04712814402245 0 0 0
1351 1 11.278788597281604 4.299575955640788 5.104953639730841 0 0 0
1355 1 12.913311972622918 4.295419523304646 5.200953640047733 0 0 0
1354 1 12.888160787903018 5.183645338420103 4.422095716387027 0 0 0
1357 1 13.639951253292512 4.392352183056787 4.396218575415888 0 0 0
1360 1 13.601821584689553 5.126351485350237 5.088641162385543 0 0 0
1324 1 -0.20453086324048764 5.210976384636683 5.169686855777695 0 0 0
1358 1 14.44608018407951 5.142630457526559 4.405114253734185 0 0 0
1359 1 14.632493901275211 4.382670099562309 5.157138985027294 0 0 0
1363 1 0.5365318283558959 6.007615274741661 5.259478572685873 0 0 0
1362 1 0.5303383274748105 6.680677706618296 4.403796944611329 0 0 0
1365 1 1.2239698894538547 5.885655055530385 4.29801954174413 0 0 0
1367 1 1.9881961874782728 5.959334848087685 5.070048084397013 0 0 0
1366 1 2.002141927436173 6.746791820079852 4.418576388273474 0 0 0
1368 1 1.2675268704315847 6.7758048613689725 5.222051337573334 0 0 0
1369 1 2.7972525174824288 5.834246410891911 4.346366891899231 0 0 0
1371 1 3.5312956563858897 5.9710431861187185 5.042843559187162 0 0 0
1372 1 2.7800153206414935 6.7472280710033745 5.159673628319302 0 0 0
1370 1 3.4718010180954155 6.7373136543996655 4.289970088939264 0 0 0
1373 1 4.184073416703448 5.846004004614714 4.285946050782622 0 0 0
1375 1 5.062677738159289 5.842430908784084 5.122279556355213 0 0 0
1376 1 4.318155134986418 6.773845892998276 5.1847256579262755 0 0 0
1374 1 5.098942638922467 6.67225007340756 4.266994034131124 0 0 0
1377 1 5.897246974761548 5.902007002507737 4.356936595105026 0 0 0
1379 1 6.778477968211976 5.754690021792699 5.185085355404155 0 0 0
1380 1 5.865342547964092 6.695460363290898 5.12184255817115 0 0 0
1378 1 6.639206363435271 6.645061794404185 4.326678453779783 0 0 0
1381 1 7.416106636975256 5.843118387829217 4.358409037210158 0 0 0
1384 1 7.457767375433929 6.644051403317475 5.16863481270185 0 0 0
1383 1 8.188679200227472 5.947360341025102 4.980123128778109 0 0 0
1382 1 8.15286766360822 6.6588949936865065 4.337988676398051 0 0 0
1385 1 8.935056220287763 6.061736045004119 4.336805781157426 0 0 0
1388 1 8.972876951941466 6.737629664175304 5.162798902800262 0 0 0
1389 1 10.524530771196567 5.8673665167186915 4.260534601646358 0 0 0
1387 1 9.775082412834973 5.906671111396226 5.10535905792116 0 0 0
1386 1 9.838063306804777 6.723427842333226 4.2884343854237015 0 0 0
1392 1 10.575129309511805 6.690216319858816 5.09141998697171 0 0 0
1393 1 12.222737689957693 5.984720528128636 4.404255401854287 0 0 0
1391 1 11.201165810239292 5.817218897811179 5.014284347778264 0 0 0
1396 1 12.066509561422755 6.708854681642134 5.140760891390646 0 0 0
1390 1 11.367441589691676 6.601093836693669 4.330926690455751 0 0 0
1395 1 12.917452891891944 5.971153390968827 5.131520226639196 0 0 0
1397 1 13.713399108855384 5.9746055302587795 4.399294799385523 0 0 0
1394 1 12.919557207759986 6.716653972695208 4.404142790435938 0 0 0
1400 1 13.63713163624702 6.726423944038426 5.207055297016528 0 0 0
1361 1 -0.1709195488869064 6.019583707935129 4.4002367113562455 0 0 0
1399 1 14.422706828874276 5.888402125821072 5.175201831501286 0 0 0
1398 1 14.484724661243206 6.788368933973623 4.3058287533635875 0 0 0
1364 1 15.190256959086877 6.620023558123012 5.155989531537742 -1 0 0
1403 1 0.38590093582660034 7.50767088140048 5.237433906468942 0 0 0
1401 1 -0.19474708311145875 7.48203919354443 4.388576128434113 0 0 0
1405 1 1.2832732495912778 7.569297358609532 4.454932841431942 0 0 0
1407 1 2.097593254294196 7.485341698568232 5.130988622944419 0 0 0
1409 1 2.809848545278501 7.5077547540827405 4.26833271113334 0 0 0
1411 1 3.570460455067826 7.4518503333577835 5.222760971157896 0 0 0
1412 1 2.7883320303460413 8.302260181732962 5.157531020398606 0 0 0
1413 1 4.316979406965031 7.440582826030078 4.220065794139114 0 0 0
1415 1 5.2106065082715505 7.497418909464478 5.273548411420127 0 0 0
1417 1 5.827060834204549 7.486631002113726 4.3907834700939405 0 0 0
1419 1 6.642437710233048 7.508674627547712 5.182455699176498 0 0 0
1420 1 5.940680057292754 8.293147586749697 5.261297775988973 0 0 0
1421 1 7.371337755294244 7.434674656359284 4.3603399309731765 0 0 0
1423 1 8.18191561037304 7.507351328632339 5.016536065732789 0 0 0
1425 1 9.081536675859049 7.466401543978177 4.247773726429306 0 0 0
1427 1 9.722695877418694 7.49297361612936 5.003490685241142 0 0 0
1429 1 10.674533460733457 7.416877196519713 4.399810746031285 0 0 0
1433 1 12.011366669795034 7.386595055803141 4.345534411669442 0 0 0
1431 1 11.343728774307131 7.5777985734088835 5.164435294574177 0 0 0
1436 1 12.090158395827885 8.253985137810108 5.156392440846312 0 0 0
1430 1 11.356485302769745 8.223714757220783 4.365468551580318 0 0 0
1435 1 12.77642120915581 7.46616040718665 5.135241743220163 0 0 0
1437 1 13.697212061874232 7.484981436631183 4.380703055433744 0 0 0
1434 1 12.803359505771844 8.182894068901717 4.231559117689717 0 0 0
1439 1 14.507433537732112 7.407388810319015 5.067059982706162 0 0 0
1438 1 14.578307392516589 8.194719594415012 4.346616979861007 0 0 0
1402 1 0.3792762561510117 8.42320325238919 4.472565014445675 0 0 0
1443 1 0.3502973420342076 9.095037936265452 5.233247907697435 0 0 0
1408 1 1.1160968596930627 8.219090993647036 5.1902694912109 0 0 0
1445 1 1.16439826980105 8.978328548934556 4.5330809217910595 0 0 0
1406 1 1.9960767368806787 8.25969281404586 4.355341987071438 0 0 0
1447 1 1.8500177311019343 9.0012004182061 5.256601177670588 0 0 0
1410 1 3.620751879653611 8.173794354962006 4.461260113331538 0 0 0
1449 1 2.9450425276818746 9.00793452320439 4.485688653734345 0 0 0
1451 1 3.6682944990334017 8.907709464586006 5.213426958839693 0 0 0
1414 1 5.100421154587894 8.192347562173119 4.348046434769545 0 0 0
1416 1 4.4249446848977625 8.108664148650508 5.107686609607977 0 0 0
1453 1 4.32438902977004 9.049969689259392 4.370040889068839 0 0 0
1455 1 5.139080663519356 9.10403537549329 5.174294466654991 0 0 0
1418 1 6.680031708071219 8.194564614079546 4.315732913490094 0 0 0
1457 1 5.877771740545994 8.99196062406483 4.417821696995209 0 0 0
1459 1 6.630318198331422 9.014084176256123 5.153021334785416 0 0 0
1424 1 7.400586700815989 8.2939528840594 5.122613517831376 0 0 0
1461 1 7.446195262627951 8.944879547865227 4.337106379638683 0 0 0
1422 1 8.18172151748216 8.250569967112355 4.244941370194854 0 0 0
1463 1 8.116788411828896 9.034746945921867 5.084851517521504 0 0 0
1428 1 8.905064106478708 8.223646812054739 5.099642920143508 0 0 0
1465 1 8.959719380800482 9.025963879938594 4.319459377996514 0 0 0
1432 1 10.555906113060736 8.268521236038357 5.136023565373319 0 0 0
1426 1 9.695063263627645 8.319527305727824 4.192098923474202 0 0 0
1467 1 9.647015214238674 9.036498907832886 4.996989488781978 0 0 0
1469 1 10.612330498115469 8.98007251734597 4.29079805198441 0 0 0
1473 1 12.09866503990732 8.910914760798043 4.2785987887815535 0 0 0
1471 1 11.4173396163695 9.01828106835939 5.085203023651589 0 0 0
1440 1 13.606940702132153 8.259754128394011 5.1175096163877924 0 0 0
1475 1 12.884656982926959 8.986800035416884 5.0219268942593756 0 0 0
1477 1 13.729465860259783 8.94639238406436 4.360640247282321 0 0 0
1404 1 -0.2818266048759297 8.281196658094927 5.232850691538446 0 0 0
1441 1 15.110713883728796 9.109297513754477 4.4127602523367 -1 0 0
1479 1 14.466914090580495 8.89582106120962 5.17556659958477 0 0 0
1442 1 0.391002571941628 9.753582699769371 4.505886220063008 0 0 0
1483 1 0.42706869147226545 10.496021063535117 5.207656810241878 0 0 0
1444 1 15.155753483188374 9.864880963688837 5.177355099660464 -1 0 0
1481 1 15.229419528473564 10.564263756675704 4.4084866352633805 -1 0 0
1485 1 1.1898898787609844 10.458414002856529 4.581005753051642 0 0 0
1446 1 2.010456852410491 9.648086788221732 4.46866772235191 0 0 0
1487 1 2.0487900138613133 10.391829035165653 5.116475490666072 0 0 0
1448 1 1.15080812473925 9.737345367591619 5.249810842856796 0 0 0
1489 1 2.8314478078760956 10.497944597288758 4.348327151822202 0 0 0
1450 1 3.6582816258808624 9.833761075979357 4.332027918851758 0 0 0
1491 1 3.5954945670575844 10.547481437881583 5.023660619645167 0 0 0
1452 1 2.9321371195129844 9.790859044719845 5.1168506340732955 0 0 0
1456 1 4.314066791453509 9.663794574391588 5.1700479805241555 0 0 0
1493 1 4.400261584925642 10.490721277959231 4.3451454540219325 0 0 0
1495 1 5.117506358933032 10.496138056375187 5.12235150294217 0 0 0
1454 1 5.117168231614833 9.703881905262062 4.35109671170762 0 0 0
1497 1 5.849133232506652 10.603591095597174 4.369021732356106 0 0 0
1460 1 5.905161704928449 9.769766328471388 5.116267106902437 0 0 0
1458 1 6.7273303491147916 9.826123355809631 4.290042297636237 0 0 0
1499 1 6.607782693961048 10.562620672662025 5.098348874016336 0 0 0
1501 1 7.555744435941189 10.596271271677235 4.313460721702183 0 0 0
1464 1 7.42337366739766 9.935901211718043 5.166571377023495 0 0 0
1503 1 8.294820894885923 10.57160483729422 4.973175697565279 0 0 0
1462 1 8.180014992555869 9.780648452885991 4.354099805918457 0 0 0
1505 1 9.073488302914257 10.590265488055305 4.30535702437836 0 0 0
1468 1 9.011570735883407 9.888932783966528 5.033885444722208 0 0 0
1466 1 9.851058381053395 9.727885238811432 4.21893808408838 0 0 0
1472 1 10.572183085808291 9.779357405641559 4.881577755303316 0 0 0
1509 1 10.639545382394576 10.603460522616384 4.267702327513362 0 0 0
1507 1 9.824807800091715 10.573073020703966 5.143777585587798 0 0 0
1513 1 12.124471772576335 10.601372347712203 4.366270185941885 0 0 0
1470 1 11.414762247790886 9.778967238920114 4.231744411044769 0 0 0
1511 1 11.33158675729442 10.460182982348833 5.154411800606762 0 0 0
1476 1 12.18569967150598 9.794356930909299 5.076769026400186 0 0 0
1474 1 12.894264840310399 9.766118085838446 4.32348422020344 0 0 0
1515 1 12.920943841833331 10.5141792779803 5.059867039532593 0 0 0
1480 1 13.62501822263209 9.720066420393398 5.079169590506056 0 0 0
1517 1 13.603296571418081 10.659366579868117 4.329599671545827 0 0 0
1478 1 14.478808219961518 9.90289344404355 4.3743358299143065 0 0 0
1519 1 14.280085495782323 10.568288133990826 5.1532974961097056 0 0 0
1482 1 0.36128829826950426 11.295509928508423 4.52383233987806 0 0 0
1523 1 0.3831705463972125 12.110244107343075 5.151916379351675 0 0 0
1525 1 1.1924870304117916 11.971780779507785 4.374651654197132 0 0 0
1488 1 1.304534163058901 11.313288213966768 5.244488473785484 0 0 0
1486 1 1.9302455299707981 11.24538607351208 4.3894396291377475 0 0 0
1527 1 2.0465255738389865 12.228512519178459 5.144352678276837 0 0 0
1492 1 2.695052205819624 11.253401839267195 5.025633649290607 0 0 0
1490 1 3.4790524304776587 11.286138560287974 4.3316352051332885 0 0 0
1529 1 2.5925702984262777 11.960968998391422 4.332278921369395 0 0 0
1531 1 3.5245699566371536 12.116685890536907 5.046587795548309 0 0 0
1533 1 4.30828576084929 12.026743884663908 4.331619216098592 0 0 0
1496 1 4.255973697928804 11.348722596619496 5.140646376418332 0 0 0
1494 1 5.007826356498401 11.334866214860945 4.445309863333909 0 0 0
1535 1 5.178335195926561 12.11840882773442 5.055372969597216 0 0 0
1500 1 5.793789414953305 11.28642192099456 5.2061973968329 0 0 0
1537 1 5.862024696956984 12.104860414902532 4.305730883941156 0 0 0
1539 1 6.632337486616948 12.177076219551576 4.962383270266586 0 0 0
1498 1 6.616244715304053 11.319401452850439 4.374731425809964 0 0 0
1541 1 7.584121570997314 12.062866400653927 4.437703499178296 0 0 0
1504 1 7.5183112198249065 11.208636976624252 5.146436628805123 0 0 0
1543 1 8.303035956066733 12.087877511162294 5.155350034582977 0 0 0
1502 1 8.323148982488956 11.36753276496044 4.360443512283617 0 0 0
1508 1 9.147626353508695 11.324641366525228 5.027766703809469 0 0 0
1545 1 9.069403987030391 12.106369617244606 4.337663668703211 0 0 0
1506 1 9.812774223660032 11.415474610946987 4.217356032459781 0 0 0
1547 1 9.896848319140599 12.078937793217715 5.111650111972614 0 0 0
1512 1 10.663304491114285 11.309527748586053 5.139818111590048 0 0 0
1549 1 10.532687650874681 12.125694269615622 4.301958326099532 0 0 0
1510 1 11.323837918420473 11.404731133284287 4.216517378331983 0 0 0
1553 1 12.063827076370185 12.145811209279675 4.342491227495776 0 0 0
1551 1 11.410909838904939 12.219006852563155 5.134986833737183 0 0 0
1516 1 12.188344658159323 11.302477397036803 5.135141750552612 0 0 0
1514 1 12.937610233526751 11.382276270090124 4.32926469210426 0 0 0
1555 1 12.938889392020222 12.148979120564572 5.061949514078142 0 0 0
1557 1 13.710869546236886 12.220349147870024 4.229245829707202 0 0 0
1520 1 13.628230212953461 11.417068345603965 5.100456523132466 0 0 0
1484 1 15.149129425302483 11.358541968535576 5.076849690950168 -1 0 0
1521 1 -0.27494326558308435 12.072849871989987 4.3341790396779825 0 0 0
1518 1 14.417853131190643 11.279102540748042 4.407190845846269 0 0 0
1559 1 14.440186259412858 12.162830934276258 5.09238910896958 0 0 0
1522 1 0.49869724664832016 12.851126478062639 4.3713238649915 0 0 0
1563 1 0.5226895033021409 13.655501317409335 5.089334946863227 0 0 0
1524 1 15.170149149762928 12.96000720678682 4.982376645550079 -1 0 0
1561 1 -0.12683095532915195 13.711728364630918 4.32600975031251 0 0 0
1528 1 1.1889644213801278 12.825221655992788 5.127577021676811 0 0 0
1526 1 1.9684199223103027 12.813192665007609 4.247507306969762 0 0 0
1567 1 1.9911432144297443 13.49858224207227 5.080049834790686 0 0 0
1565 1 1.3522904189545717 13.683873121086663 4.277380804791668 0 0 0
1530 1 3.5442423023202814 12.81572005538455 4.2079518236224285 0 0 0
1532 1 2.8424958065773605 12.86476742065662 5.009401579985449 0 0 0
1569 1 2.8237230735467396 13.607675990100795 4.340003107086695 0 0 0
1571 1 3.589309551788606 13.572461163344936 5.1695611828118695 0 0 0
1536 1 4.34207790687933 12.742060268088917 5.039928938083634 0 0 0
1534 1 5.114062722557114 12.880704961173983 4.399883720349534 0 0 0
1575 1 5.184857000478542 13.684707613445514 5.122639214141115 0 0 0
1573 1 4.4016084841542416 13.608113393559073 4.390674995839249 0 0 0
1540 1 5.892131300991941 12.983026381103638 5.0783800727745065 0 0 0
1577 1 5.855055697223255 13.793070383088352 4.43425608427349 0 0 0
1538 1 6.565255517724627 13.020306065218278 4.307277515689119 0 0 0
1579 1 6.629493762509095 13.666710011692931 5.141254689531829 0 0 0
1544 1 7.402081563426131 13.007661961077368 5.27876289442064 0 0 0
1581 1 7.480527189270864 13.846300156396556 4.404070623598214 0 0 0
1583 1 8.272802787130544 13.764028132819782 5.103188332542628 0 0 0
1542 1 8.197949081953311 12.974453375446917 4.477289598265216 0 0 0
1548 1 9.006355682219343 12.910386374811008 5.135738462995979 0 0 0
1585 1 9.01498753282069 13.772185535615069 4.40395148179253 0 0 0
1546 1 9.851155673091231 12.88554575117993 4.369832075974194 0 0 0
1552 1 10.460003504787736 12.883058186869864 5.13343375011956 0 0 0
1589 1 10.60350987268967 13.724720533752272 4.424997901431861 0 0 0
1587 1 9.790375321336857 13.707337134508702 5.074433594392434 0 0 0
1550 1 11.340935157969273 12.948777357654667 4.19113823057575 0 0 0
1556 1 12.23399473906997 12.988745949491246 4.912907990697032 0 0 0
1593 1 12.114998989655 13.763098997636273 4.344133003016914 0 0 0
1591 1 11.37501733683494 13.69650576975026 5.083139032606505 0 0 0
1554 1 12.950276278096485 12.848982224085567 4.16454897612676 0 0 0
1560 1 13.673931071899336 12.832605290720338 4.99824351605416 0 0 0
1597 1 13.777272988226873 13.62256763582807 4.1876512529809595 0 0 0
1595 1 13.026001275737965 13.741138465901656 5.036992351305645 0 0 0
1558 1 14.529313705375749 12.834748361580221 4.197560997017911 0 0 0
1599 1 14.463807217118045 13.64238445384456 5.011014941920804 0 0 0
1201 1 -0.2982290104226156 -0.253382843408757 4.432507402578938 0 0 0
1562 1 0.582126075181898 14.507621047743008 4.385001189319687 0 0 0
1564 1 15.221855839258502 14.43164466355347 5.080984275175812 -1 0 0
1207 1 1.8737911179052955 15.235715471688678 5.175811921055899 0 -1 0
1568 1 1.3804565551754386 14.329124224429417 5.06268069272732 0 0 0
1566 1 2.183345106869684 14.469922382912927 4.493538258146251 0 0 0
1570 1 3.5604235016513366 14.365559109043868 4.400367899367648 0 0 0
1572 1 3.032525715883213 14.399922863655679 5.203272630992638 0 0 0
1213 1 4.323241306299987 -0.2823598595288467 4.45079776174884 0 0 0
1576 1 4.2829246481177385 14.483899694675351 5.188820056553583 0 0 0
1574 1 5.008818094443811 14.503118326174928 4.330183151467822 0 0 0
1217 1 5.877176569502354 15.243539820923036 4.304045426535205 0 -1 0
1580 1 5.8343952105912535 14.502675551117989 5.1241892040602615 0 0 0
1578 1 6.642995577208487 14.459998024599425 4.407719907241052 0 0 0
1221 1 7.428959225255167 15.171367666325885 4.291995625855182 0 -1 0
1584 1 7.4924019824819155 14.55604606711147 5.1975751761040305 0 0 0
1225 1 9.095201560697571 15.147233995588085 4.426428249777843 0 -1 0
1223 1 8.325817950919355 15.20459303222038 5.1426293002182515 0 -1 0
1582 1 8.231890822127049 14.517937676338722 4.338896689226142 0 0 0
1588 1 9.09784187041765 14.486401909517994 5.135685088079832 0 0 0
1229 1 10.622036983802463 -0.1853737559277369 4.4014150814890325 0 0 0
1586 1 9.811232725778936 14.462881590379006 4.421009821400131 0 0 0
1592 1 10.593977602270492 14.626034800930107 5.085720717488814 0 0 0
1231 1 11.414201815705308 -0.2612281577344604 5.298194189880016 0 0 0
1233 1 11.99941812215118 -0.2915908625432234 4.439102079422356 0 0 0
1590 1 11.372851311037927 14.510232483498733 4.425027350647799 0 0 0
1596 1 12.142629021004492 14.41856592962261 5.240282302326527 0 0 0
1235 1 12.866369131395963 -0.29370221531125473 5.045010055253432 0 0 0
1594 1 12.88059941071112 14.547829739525813 4.422546990506296 0 0 0
1600 1 13.734381888934806 14.490679346999002 4.9013509929065835 0 0 0
1598 1 14.613047289081639 14.529814766653978 4.321685131185361 0 0 0
1602 1 0.45724043873946485 0.6858873426677494 5.956666215829253 0 0 0
1603 1 0.40892262946981817 15.10304003177712 6.695515811334035 0 -1 0
1604 1 15.236637858261439 0.40112253005980236 6.550292556482339 -1 0 0
1606 1 2.057039463186128 0.4652602999239184 5.886355826179719 0 0 0
1608 1 1.2536886842282737 0.5404437851107008 6.710843930719564 0 0 0
1607 1 1.9644648321656595 15.239589586427135 6.673884270134832 0 -1 0
1610 1 3.6063276147560193 0.5400428451141848 5.995516258483274 0 0 0
1611 1 3.5611818655109593 -0.22896058050617515 6.680434348057767 0 0 0
1612 1 2.7766225210770767 0.46848075280974255 6.624333521701971 0 0 0
1614 1 5.1444228122505615 0.49570842486931566 6.028808654156863 0 0 0
1616 1 4.377996938791267 0.4411713756911442 6.733552851946594 0 0 0
1620 1 5.868558207455934 0.5012245782057136 6.746407823203868 0 0 0
1618 1 6.648487379955533 0.4086537769343085 5.8590809301938895 0 0 0
1621 1 7.469426674560355 -0.26083164267589354 6.0347920483191535 0 0 0
1624 1 7.436244177088565 0.41035296518347475 6.759520661300954 0 0 0
1622 1 8.31567119144652 0.4566748919004262 5.962864672487739 0 0 0
1628 1 9.023002397590403 0.4377171983124153 6.681466821384886 0 0 0
1626 1 9.86575827812646 0.5715533621710288 6.038566192618032 0 0 0
1627 1 9.81340514155626 -0.2726144623928166 6.760179546679938 0 0 0
1630 1 11.322379459996867 0.5017251831857661 5.944460228022521 0 0 0
1636 1 12.11305325777792 0.5741451793592752 6.780347614195923 0 0 0
1634 1 12.90896130910286 0.5784350104837858 5.998165985984353 0 0 0
1640 1 13.746629305121644 0.5077227281603468 6.714388217888359 0 0 0
1601 1 15.243080322232931 15.116171992749898 5.86643816211829 -1 -1 0
1638 1 14.437041193309039 0.503819656484622 5.941624425887954 0 0 0
1642 1 0.4225015076819202 2.0045368015933085 5.909425232685554 0 0 0
1643 1 0.5382027547077254 1.349681144491444 6.837778140063655 0 0 0
1645 1 1.2711521779568606 1.3446812086880962 5.945133030196627 0 0 0
1646 1 2.0250553161367013 2.1003564673488264 5.847242113110023 0 0 0
1647 1 1.9045274034886979 1.3528040495999243 6.783059718988385 0 0 0
1648 1 1.1817758754337675 2.1799889128951855 6.637440817802353 0 0 0
1649 1 2.792218044520681 1.2280280444545366 5.94609428546998 0 0 0
1650 1 3.536716168183444 1.901625983667321 6.021775117972409 0 0 0
1651 1 3.623787218931041 1.1765696436166828 6.785609152452664 0 0 0
1652 1 2.748794062322274 1.8013563058631155 6.745864009674493 0 0 0
1653 1 4.430816538855693 1.1902237329787062 5.963370244341084 0 0 0
1654 1 5.21225929076923 2.0091509619604673 6.019309818405508 0 0 0
1656 1 4.413776723575392 1.9956685417117441 6.806875069317695 0 0 0
1655 1 5.221177099143818 1.3303897200477588 6.817416030615103 0 0 0
1657 1 5.9659453603036114 1.2869739457772142 5.982467493080594 0 0 0
1658 1 6.680698475841678 2.1213288605708223 5.942661316796808 0 0 0
1660 1 6.000388429743401 2.021027394702122 6.6773385226607465 0 0 0
1659 1 6.653627155136695 1.1744836758455337 6.647631472716028 0 0 0
1661 1 7.566064031251785 1.0704979206660448 6.004468280440362 0 0 0
1664 1 7.436914468016995 1.9109576774366452 6.620607780671725 0 0 0
1662 1 8.27511442224477 2.109140331839755 5.785135067452036 0 0 0
1665 1 9.108401781113972 1.3174480338620103 5.923302498392539 0 0 0
1668 1 9.144361017884709 2.123961600967861 6.768809503923298 0 0 0
1663 1 8.393392096047915 1.438151775755612 6.513414996742835 0 0 0
1669 1 10.465284703536494 1.3018757984804834 6.03022044577634 0 0 0
1666 1 9.803887052953403 2.106322215267454 5.948465188879191 0 0 0
1667 1 9.692524841659402 1.2195382971992494 6.811975126710822 0 0 0
1673 1 12.210495862162027 1.226988498667496 5.95742989961262 0 0 0
1670 1 11.401165525531901 1.9127261243896418 6.0544234149496505 0 0 0
1674 1 12.949409182699842 2.046660741423673 5.908719823542805 0 0 0
1677 1 13.677352587764851 1.3168973597992712 5.889979034533074 0 0 0
1675 1 12.940910413506614 1.3318293321496377 6.810327691968593 0 0 0
1680 1 13.676234066021642 2.139721658249129 6.755154257125619 0 0 0
1641 1 -0.30516738442261926 1.3099592069034989 5.8950078967089174 0 0 0
1678 1 14.446719850935164 1.9448226510410058 5.927214787490943 0 0 0
1679 1 14.447123383449156 1.2564909195240166 6.698784611771414 0 0 0
1682 1 0.426386091695921 3.6686262483895105 5.884113745494257 0 0 0
1683 1 0.4280534373294388 2.860357429903515 6.680997708843382 0 0 0
1681 1 -0.30029243661350663 2.735272026540618 5.8738915525717905 0 0 0
1685 1 1.2071671448073593 2.9213553790847193 5.909264451862888 0 0 0
1686 1 2.1596870776717187 3.5589674297951146 5.936861153019326 0 0 0
1687 1 2.052689793665107 2.8558445903005367 6.724679367491192 0 0 0
1688 1 1.2010259776218908 3.6196061440277707 6.671775368106734 0 0 0
1689 1 2.84408522434107 2.672151597216065 6.066093256183492 0 0 0
1690 1 3.69710116069583 3.6062203810766396 5.920516070853063 0 0 0
1692 1 3.02719604888215 3.57527742430461 6.7543074411072554 0 0 0
1691 1 3.6940583265422955 2.728816608357602 6.771398489886238 0 0 0
1693 1 4.433971106037154 2.797094459728216 6.002505041618801 0 0 0
1694 1 5.126097232392617 3.4797562932759565 5.950109657887756 0 0 0
1696 1 4.442303142916006 3.6196204659637843 6.78889769606058 0 0 0
1695 1 5.252843426906493 2.8596955807474767 6.814933242633966 0 0 0
1697 1 5.943861544370448 2.7525479498153707 5.9388320976851965 0 0 0
1700 1 5.89708865070982 3.709329033065095 6.755260028925874 0 0 0
1699 1 6.7702397542723585 2.784669614835914 6.74990132673892 0 0 0
1698 1 6.569624441493764 3.472542394719485 5.971497821990031 0 0 0
1701 1 7.4676823073840355 2.7293080138006736 5.8007641148997315 0 0 0
1704 1 7.348741058416921 3.599823218253757 6.659122446505727 0 0 0
1702 1 8.166749211888344 3.5598790364950643 5.8879326095900835 0 0 0
1703 1 8.25900001005957 2.6400624281795504 6.651009675313137 0 0 0
1705 1 9.01296476985798 2.795357819801566 5.9797432180376635 0 0 0
1708 1 8.835680393441542 3.5011382186072653 6.720337201376812 0 0 0
1706 1 9.68709473666317 3.596526173351144 5.883191034421662 0 0 0
1709 1 10.607181208727646 2.875026925129928 5.899211260724923 0 0 0
1712 1 10.427819411668438 3.7316302178946144 6.827940776492415 0 0 0
1710 1 11.374568236457531 3.599365636316416 5.952489109218645 0 0 0
1713 1 12.191025217209344 2.6803447206155586 5.891658112952358 0 0 0
1716 1 12.129198058073523 3.5970699676460494 6.639606547090658 0 0 0
1711 1 11.390117983797985 2.842264922858647 6.583097697067251 0 0 0
1714 1 12.90822916834058 3.5004910925305923 5.884938042192093 0 0 0
1717 1 13.70430990155198 2.6517033460547452 5.9172036726672355 0 0 0
1715 1 12.845001427995161 2.836046481290534 6.714338575715517 0 0 0
1720 1 13.750710030788518 3.6067073339543834 6.561679410903825 0 0 0
1684 1 15.248892888433318 3.6424425039656847 6.643778414368143 -1 0 0
1718 1 14.442678759993878 3.6333505583999406 5.860886225788585 0 0 0
1719 1 14.508961911877297 2.883600611221474 6.568609280360081 0 0 0
1722 1 0.5146674464607887 5.11742497103418 5.94477808963997 0 0 0
1724 1 15.237986637980848 5.2555748464323795 6.629984763520767 -1 0 0
1721 1 15.236645075537806 4.341542952778658 5.972798585836216 -1 0 0
1723 1 0.5197744296092813 4.375973281090214 6.666801336869631 0 0 0
1725 1 1.2588407807411706 4.277190575912877 5.876532720966388 0 0 0
1726 1 1.954592732207224 5.046611731135571 5.838089844346038 0 0 0
1728 1 1.3878742288407604 5.113897079989275 6.676279197097746 0 0 0
1729 1 2.8730145675385654 4.335980840585584 5.957320001038736 0 0 0
1730 1 3.669296002080582 5.084777880511671 5.847111833191263 0 0 0
1732 1 2.7502135501439624 5.09815098488133 6.731401897350801 0 0 0
1731 1 3.604610135197639 4.349949577084528 6.614466535184488 0 0 0
1733 1 4.492801109714454 4.292295396106864 6.036593351894565 0 0 0
1734 1 5.078195933067221 5.076661721808584 5.895731346579466 0 0 0
1735 1 5.186937575323251 4.365163130886412 6.706099972678764 0 0 0
1340 1 5.860142884930818 5.164237312960244 5.097347149369567 0 0 0
1737 1 5.936673363939143 4.347069824045737 5.887067446358216 0 0 0
1739 1 6.634066660279715 4.358191581817255 6.626691611466543 0 0 0
1738 1 6.698884937568116 5.0913127648785395 5.875178488995048 0 0 0
1740 1 5.899129510648453 5.154488588503986 6.631540331713099 0 0 0
1741 1 7.4868195986678465 4.443078028539204 6.059550430914769 0 0 0
1744 1 7.587618453934824 5.262989236300015 6.819672766775087 0 0 0
1742 1 8.28704931513877 5.0790367237982235 5.8628619269049835 0 0 0
1745 1 8.87418186986547 4.3149540491803275 5.895943703946051 0 0 0
1743 1 8.292909638625684 4.420656605075072 6.714369260890913 0 0 0
1748 1 9.018535153229308 5.210645929966919 6.542481600949493 0 0 0
1746 1 9.75480217218383 5.121066508437102 5.883228731904606 0 0 0
1749 1 10.542150926940675 4.284668664544086 5.793261465679299 0 0 0
1752 1 10.450759923236639 5.0909496651141115 6.6060028278566705 0 0 0
1750 1 11.413779597158133 5.117921129645034 5.770123009308666 0 0 0
1753 1 12.142503300279436 4.4420912024064965 5.95828354800579 0 0 0
1756 1 12.15547218539782 5.206031660897111 6.587162575771611 0 0 0
1751 1 11.262016912580687 4.437427660518215 6.570922293630401 0 0 0
1754 1 12.849891571765621 5.208923192716525 5.784715872023864 0 0 0
1757 1 13.791152640828923 4.452841611015609 5.899821831373437 0 0 0
1755 1 12.98957323134962 4.226415908952507 6.618916178263941 0 0 0
1760 1 13.67784665191229 5.19656662440967 6.601881932233134 0 0 0
1758 1 14.558404316551403 5.156205097135461 5.936646599645942 0 0 0
1759 1 14.461822344205974 4.4920998986344145 6.689966710301714 0 0 0
1762 1 0.5268090067758128 6.759656511317767 5.959687555604326 0 0 0
1763 1 0.5379727251414403 5.806358450594957 6.732005726088086 0 0 0
1765 1 1.2716009644217616 5.961032893851734 5.945977234528677 0 0 0
1766 1 2.026373783091774 6.745133902970645 5.977720570782131 0 0 0
1768 1 1.1270768407903364 6.632455940978931 6.784188682553321 0 0 0
1769 1 2.7917495931079372 5.947237147115346 5.8538761076603185 0 0 0
1770 1 3.4873793389316643 6.691938747127599 5.852629347301287 0 0 0
1772 1 2.755702508240203 6.615013181275514 6.633201449850586 0 0 0
1773 1 4.340249883634446 5.868554023258536 5.786175252701345 0 0 0
1774 1 5.122342244732046 6.560678153537732 5.909936628390113 0 0 0
1775 1 5.1538464672840565 5.891266965179428 6.68832476725544 0 0 0
1777 1 5.838650265636966 5.87450972030252 5.862591479315362 0 0 0
1778 1 6.688204998190806 6.600623317648709 5.764431336937292 0 0 0
1780 1 5.953642380244475 6.585515448626652 6.705212742819005 0 0 0
1781 1 7.44480038454739 5.904786861792004 5.905519042760277 0 0 0
1784 1 7.406111527315187 6.684583299898739 6.611489202940202 0 0 0
1785 1 9.043339711367288 5.961850443177991 5.880957467467371 0 0 0
1783 1 8.331746386107838 5.972033959891235 6.649731197744099 0 0 0
1789 1 10.527681021521467 5.946551272888463 5.814025493964374 0 0 0
1786 1 9.801189642784905 6.6931435929789185 5.8360323707256585 0 0 0
1792 1 10.525489326866243 6.71795651658739 6.590629507765988 0 0 0
1793 1 12.07773761940878 5.998075237820252 5.858743727457925 0 0 0
1790 1 11.234883819029466 6.784035093506589 5.841930476280677 0 0 0
1791 1 11.251601122479531 5.812360333565194 6.4856484340405975 0 0 0
1796 1 11.90707221574624 6.645527266280852 6.665452044547197 0 0 0
1797 1 13.688109281663337 5.988684982388443 5.916991262127083 0 0 0
1794 1 12.81546205045963 6.735029696414162 5.8503399058144625 0 0 0
1795 1 12.81122533759066 6.080732239218822 6.618983420881365 0 0 0
1800 1 13.699136053721269 6.747994236819134 6.753624406336971 0 0 0
1761 1 -0.2184739325268748 6.037930133015692 5.951862381594563 0 0 0
1798 1 14.491473195716946 6.767184050524839 5.977444243852434 0 0 0
1799 1 14.407652053099934 5.911715615334418 6.8162335489922565 0 0 0
1805 1 1.2113764329727 7.5702348288528105 5.893939742782435 0 0 0
1807 1 2.158599973355813 7.511193359563908 6.635890451066203 0 0 0
1809 1 2.784439939044132 7.491824103844985 5.841067988332137 0 0 0
1811 1 3.420234596576431 7.498131517732244 6.658591022346435 0 0 0
1813 1 4.29189439758688 7.487619291082682 6.151040184875436 0 0 0
1815 1 5.162724090422319 7.375346711147147 6.628540217067319 0 0 0
1817 1 5.87937623458483 7.360958870627363 5.934265670682867 0 0 0
1819 1 6.649614359398226 7.296551685096105 6.565562709562044 0 0 0
1821 1 7.593202811908148 7.50538795492229 5.869417717502006 0 0 0
1782 1 8.25133988423783 6.719425144170534 5.889302936251959 0 0 0
1825 1 9.046795501643484 7.507519465678488 5.787814112588557 0 0 0
1829 1 10.53635925140129 7.497786750916046 5.869802518779605 0 0 0
1833 1 12.025629002619617 7.497037097821916 5.906591080046361 0 0 0
1831 1 11.315813570098538 7.43137957702254 6.665877122930323 0 0 0
1836 1 12.144260699575145 8.195006570630568 6.656999863309729 0 0 0
1837 1 13.725229508896241 7.514320653892223 5.950521887811196 0 0 0
1835 1 12.771905405594104 7.425239535136944 6.633585845808127 0 0 0
1801 1 15.19203986350395 7.528159612735699 5.9608164905461285 -1 0 0
1804 1 15.227875273314982 8.241360893844124 6.682881531357619 -1 0 0
1838 1 14.455362866676708 8.20920019168236 5.9441973549515215 0 0 0
1839 1 14.30793169987857 7.5307537391933925 6.8059063059684055 0 0 0
1802 1 0.4239152072116745 8.215326896075013 5.9877009950157944 0 0 0
1841 1 15.211507782383453 8.92388181522794 5.9401467004268795 -1 0 0
1808 1 1.209560961949722 8.303889749147384 6.822960341478021 0 0 0
1845 1 1.0852088677190102 9.027194376383818 5.918338148417317 0 0 0
1806 1 2.080781868725815 8.232291897177085 5.899861169372901 0 0 0
1847 1 2.0792114316147003 8.912576152838401 6.771397789962316 0 0 0
1810 1 3.5468035723411035 8.16005266483501 5.930836678609617 0 0 0
1849 1 2.9108405861802535 8.966544847640314 5.96218627962969 0 0 0
1851 1 3.6003757038709288 8.93353850852299 6.722253012361281 0 0 0
1812 1 2.835349452973225 8.26479525991439 6.7236996752229174 0 0 0
1814 1 5.184871101663914 8.214941451259122 5.979429815744281 0 0 0
1853 1 4.287033604206629 8.836811318864907 5.953750027391063 0 0 0
1816 1 4.474323918588931 8.206038602775735 6.844583745427265 0 0 0
1855 1 5.129291445350922 9.020231694692693 6.821153551543497 0 0 0
1857 1 5.957110327916142 9.083420895645247 6.00277251402143 0 0 0
1818 1 6.715388171877262 8.221561462681745 5.8702897090041555 0 0 0
1820 1 6.012322036217801 8.196195821482313 6.595330735545845 0 0 0
1859 1 6.8359859798110065 9.041685174555184 6.680918003048705 0 0 0
1861 1 7.4506808196209535 9.079775456797396 5.760340423078145 0 0 0
1822 1 8.123445932138928 8.344755641441076 5.881159497619862 0 0 0
1863 1 8.20033961749688 8.966172640472482 6.684742422263483 0 0 0
1865 1 8.905891155352823 9.048204584349605 5.880321643509322 0 0 0
1828 1 8.951806715749075 8.27851665617824 6.516183933561299 0 0 0
1826 1 9.714238483895848 8.25504819813224 5.764565404212575 0 0 0
1869 1 10.370090098997476 9.032079821273701 5.779619348186784 0 0 0
1867 1 9.784881410577565 9.072067150890863 6.714959849831374 0 0 0
1830 1 11.305426802555033 8.332079064262775 5.8773929091684405 0 0 0
1873 1 12.026122599000242 9.04578962379711 5.990716283208605 0 0 0
1871 1 11.342117407050875 8.993165799610118 6.764690392591269 0 0 0
1834 1 12.856301000662622 8.206381289055141 5.863833492443422 0 0 0
1840 1 13.50340604206119 8.255366970554032 6.666787092906629 0 0 0
1875 1 12.811269480756202 9.056488002863095 6.656528104112313 0 0 0
1877 1 13.567729510539973 8.987627997054538 5.902912752979483 0 0 0
1879 1 14.412413781603167 8.844833984567195 6.749621910831653 0 0 0
1842 1 0.36703106374387595 9.830092120384347 6.092674669960696 0 0 0
1883 1 0.507743978583231 10.614518108510342 6.6296790892779605 0 0 0
1885 1 1.2192082066892604 10.594282346550294 5.897875514718442 0 0 0
1846 1 2.075632884290383 9.717038686931534 5.959272836141037 0 0 0
1848 1 1.2993068501844223 9.790743026900145 6.584255696939324 0 0 0
1887 1 2.016538192925865 10.652448862139885 6.7320123778350105 0 0 0
1850 1 3.6617189765867724 9.70841462613297 5.9908340000860285 0 0 0
1889 1 2.8569867054843607 10.385573795115562 6.0109185950730195 0 0 0
1852 1 2.8349030060289193 9.663834947493719 6.796344442723374 0 0 0
1891 1 3.5143722621581013 10.481335777630058 6.782983754612392 0 0 0
1854 1 4.914323630512011 9.820926786469755 6.000213693349464 0 0 0
1893 1 4.319344831898195 10.584744230001032 5.865464882863368 0 0 0
1856 1 4.343514384198276 9.88923864365934 6.789086095912481 0 0 0
1895 1 5.17061475567658 10.561144994045051 6.690006001149312 0 0 0
1897 1 5.928239277768953 10.548456004709067 5.873544840744551 0 0 0
1899 1 6.695581484899632 10.664752778421324 6.604226142438081 0 0 0
1860 1 6.016319249756708 9.85470454793252 6.694114751678011 0 0 0
1858 1 6.636168426077935 9.879294052529296 5.963911973966377 0 0 0
1901 1 7.501691742032691 10.650526005796625 5.967623283375998 0 0 0
1864 1 7.48934647741851 9.86444448798009 6.599962025482098 0 0 0
1862 1 8.26713888571155 9.917562840262967 5.855730113095225 0 0 0
1905 1 9.030054880456884 10.659982362492538 5.887348155893055 0 0 0
1903 1 8.160937081033381 10.63238032077168 6.831318179345046 0 0 0
1868 1 8.913378568212622 9.91313205835095 6.7359176506273 0 0 0
1866 1 9.742153126269272 9.867358195480733 5.916402378814545 0 0 0
1909 1 10.632378014325912 10.545963915072008 5.931215094902967 0 0 0
1872 1 10.493101504547102 9.815809810609704 6.725945821860264 0 0 0
1907 1 9.740296363489616 10.607739064165951 6.677586229678586 0 0 0
1870 1 11.318070960493309 9.76112972989942 5.933881428049637 0 0 0
1913 1 12.102001452293688 10.562413275229325 5.9919547973502345 0 0 0
1876 1 11.938640178279847 9.810868011334971 6.805946848986941 0 0 0
1911 1 11.352754796026037 10.687082460474038 6.7806881779087185 0 0 0
1874 1 12.830473550105896 9.699833309481047 5.81042174567898 0 0 0
1880 1 13.61991479278754 9.659955671945852 6.632879051107972 0 0 0
1917 1 13.605470634560266 10.401556933835337 5.889792219612783 0 0 0
1915 1 12.944672925771354 10.495290451142232 6.727190399781424 0 0 0
1881 1 -0.3117645323025826 10.559831463822508 5.891413297124927 0 0 0
1878 1 14.360066074573993 9.610568363292789 5.945626829537296 0 0 0
1844 1 15.132211879179476 9.68016494283702 6.807606065575962 -1 0 0
1919 1 14.324182631524941 10.54063238018663 6.646983292125554 0 0 0
1882 1 0.452908548538941 11.396703736902296 5.941551208266657 0 0 0
1923 1 0.46505220902613953 12.08124746711496 6.709840670625232 0 0 0
1921 1 15.205349138276777 11.97617103303622 5.916751427556885 -1 0 0
1884 1 15.248779311541039 11.178827561125594 6.710704464822805 -1 0 0
1925 1 1.382797944462254 12.218304548397288 5.961848841023812 0 0 0
1886 1 2.168072756324288 11.255859316468488 6.024175108595828 0 0 0
1888 1 1.2664066533547471 11.354743949375727 6.629025894040598 0 0 0
1927 1 2.065493783487163 12.10083986210547 6.720617773046001 0 0 0
1929 1 2.766736496388244 12.112591801948824 5.860460718019496 0 0 0
1890 1 3.5009249803984663 11.309433678265577 5.866862390130101 0 0 0
1931 1 3.555366644123415 12.163951086784031 6.722665546964384 0 0 0
1892 1 2.903416593758463 11.341650166983857 6.767917315259403 0 0 0
1933 1 4.382342018100782 12.024016229344294 5.9469804597919715 0 0 0
1894 1 5.075226097228969 11.190937581371855 5.913458728195955 0 0 0
1935 1 5.15744906870892 12.05337623846841 6.604635933005886 0 0 0
1896 1 4.255349556987603 11.37856768331741 6.763072568030663 0 0 0
1937 1 5.784914693289253 12.130684127201835 5.845381016722319 0 0 0
1898 1 6.698456356811972 11.39724485222958 5.732030189025193 0 0 0
1939 1 6.781420522324319 12.108132201340105 6.542860195172725 0 0 0
1900 1 5.896213653222887 11.362596587108094 6.604745858256852 0 0 0
1941 1 7.58755412320456 12.161705720221399 5.863013105445657 0 0 0
1904 1 7.516524207670974 11.42819620987208 6.615566690250355 0 0 0
1902 1 8.334826056008694 11.381312897006278 5.889854942336622 0 0 0
1945 1 9.09990865812146 12.158539042960985 5.834618254979788 0 0 0
1908 1 8.951876468091776 11.261929266175471 6.63675658650893 0 0 0
1943 1 8.342946695247736 12.148748896903065 6.564065991091089 0 0 0
1906 1 9.923384370461633 11.352999137235365 5.920867686038958 0 0 0
1949 1 10.637263532792065 12.190244563106866 5.910405387347928 0 0 0
1912 1 10.610072455281717 11.402403034276183 6.715003468145534 0 0 0
1947 1 9.833612122578689 12.119006471183688 6.6608842775865424 0 0 0
1910 1 11.429055884822581 11.306238621740363 5.823871249068043 0 0 0
1953 1 12.183159859973316 12.19246009648575 5.820778406600443 0 0 0
1916 1 12.100567625463519 11.384061354228141 6.624332618607567 0 0 0
1951 1 11.425620270386968 12.230116871643762 6.653376097897048 0 0 0
1914 1 12.96511343481146 11.148719658177182 5.967319097240548 0 0 0
1957 1 13.705786238272616 12.077741102419754 5.844810319052013 0 0 0
1955 1 12.761673054700822 12.117699645600538 6.756258498017003 0 0 0
1920 1 13.591202013614474 11.346187257016645 6.618155829144389 0 0 0
1918 1 14.401679047853111 11.271254507449513 5.9196901964876645 0 0 0
1959 1 14.388203207719588 12.167842999950906 6.607024647875489 0 0 0
1922 1 0.30859132804807154 12.941664657540446 5.749495312734868 0 0 0
1963 1 0.4056023722763341 13.77719752373704 6.579029555172394 0 0 0
1965 1 1.2531764642076242 13.599197205891382 5.838347012743243 0 0 0
1926 1 2.0341965168306024 13.031874154999496 6.146741114770786 0 0 0
1967 1 2.0303602394563147 13.78933182194275 6.6550701437076825 0 0 0
1928 1 1.1386887881997103 12.88898058955234 6.627417770590382 0 0 0
1930 1 3.6099699048327536 12.758650441394732 5.936762014679617 0 0 0
1932 1 2.87988423475095 12.943821035674588 6.721102767338099 0 0 0
1969 1 2.9735653487492435 13.738560023928912 6.01573379489982 0 0 0
1971 1 3.667931888924888 13.685659919760838 6.786869339732346 0 0 0
1934 1 5.050172325619192 12.929297690572124 5.848272919134721 0 0 0
1973 1 4.304070785398359 13.721688653134187 5.99609792625085 0 0 0
1936 1 4.358616737102582 12.862863962596922 6.6366644614823205 0 0 0
1977 1 5.925913445564308 13.69371653602035 5.911508444406043 0 0 0
1940 1 6.104889677482338 13.033434720258498 6.667250940448709 0 0 0
1938 1 6.613081731626742 12.792664770754175 5.856378547920548 0 0 0
1981 1 7.600865678487446 13.756203337046085 5.962287716526074 0 0 0
1944 1 7.51953906887345 12.866209596077969 6.668788029942837 0 0 0
1942 1 8.241270590145227 12.909625140128401 5.910262060136613 0 0 0
1983 1 8.385647312420573 13.549261201117371 6.699838728506889 0 0 0
1985 1 9.00903426913598 13.668946327970943 5.889917651844235 0 0 0
1948 1 9.119443090061434 12.898496081547343 6.729761549696952 0 0 0
1946 1 9.813916904811357 13.005436950593399 5.853341142217915 0 0 0
1989 1 10.62704111583081 13.80796721294934 5.728815584236688 0 0 0
1987 1 9.864234250718582 13.759270239056484 6.602310648088347 0 0 0
1952 1 10.530963446848201 13.031791083946057 6.629164738305029 0 0 0
1950 1 11.30640723313314 13.004835180324775 5.905969084592309 0 0 0
1993 1 12.06135389560131 13.574769007599237 5.786574226210339 0 0 0
1991 1 11.380971513655851 13.665360849431817 6.581635619162286 0 0 0
1956 1 12.17836548100328 12.953098926071892 6.659400074877791 0 0 0
1954 1 13.01539508654481 12.964054992096006 5.855194770939798 0 0 0
1995 1 12.820611776503682 13.67893392371331 6.5538053039878506 0 0 0
1997 1 13.66844826366929 13.815396449519998 5.868361758491043 0 0 0
1960 1 13.606000994830264 12.842196443709145 6.625900275874124 0 0 0
1961 1 15.219259058270822 13.743514558969121 5.7832473558039785 -1 0 0
1924 1 15.156958266902283 12.94711768107166 6.790905382170127 -1 0 0
1958 1 14.343109805877905 13.050063796825224 5.869175177941285 0 0 0
1999 1 14.361091790951221 13.716860455972494 6.6531272362066876 0 0 0
1962 1 0.5827958942886159 14.49496511741576 5.708750341350339 0 0 0
1605 1 1.13031990187288 15.220796911310128 5.994025062320206 0 -1 0
1966 1 2.0694288190383383 14.448188725542007 5.847744875586286 0 0 0
1968 1 1.2413511041765304 14.372472259442333 6.496933539179738 0 0 0
1609 1 2.8193392205597756 15.154612204718791 5.8815591732791175 0 -1 0
1970 1 3.640854417819426 14.535034619012006 5.921486119066535 0 0 0
1972 1 2.761968761524756 14.54660361089623 6.724923899128919 0 0 0
1615 1 5.209899450558121 15.168885632290795 6.7311588227654475 0 -1 0
1613 1 4.396403003229512 -0.16548144061637518 5.949167371773862 0 0 0
1974 1 5.129025835573817 14.473506637034362 5.854859416841522 0 0 0
1975 1 5.223141185234798 13.653355390182924 6.809896629716142 0 0 0
1619 1 6.598585001846788 -0.24712085876242218 6.756539220201931 0 0 0
1617 1 5.893142702016912 -0.2987001082904439 5.855415997279997 0 0 0
1978 1 6.783364947372228 14.450919982491612 5.936140259837133 0 0 0
1984 1 7.385252343896537 14.550220799558424 6.754930954828376 0 0 0
1625 1 9.07182960119222 -0.299002600574037 5.915316635618835 0 0 0
1623 1 8.224093956047707 15.235974464791987 6.69947705626397 0 -1 0
1982 1 8.39382553869008 14.501422821119661 5.919282556296158 0 0 0
1988 1 9.088929086536947 14.488000040891126 6.611719875036564 0 0 0
1629 1 10.605781996106586 -0.2005399069916152 6.053438775174507 0 0 0
1986 1 9.906070980343706 14.5468590526593 5.853453067845986 0 0 0
1992 1 10.708703765271977 14.426152413234043 6.749151711193417 0 0 0
1631 1 11.386479585365628 15.214690462343814 6.637205773524103 0 -1 0
1633 1 12.200030994662125 -0.20382041734101092 5.92292228889105 0 0 0
1990 1 11.35149509838062 14.450513760298513 5.893510977511813 0 0 0
1635 1 12.870511763233694 -0.23036253096342485 6.6343976459154135 0 0 0
1637 1 13.756476899293006 -0.2731859947415909 5.900135860165845 0 0 0
1994 1 12.933272901926088 14.584170913598182 5.799450150685323 0 0 0
2000 1 13.537069515912933 14.605995480349105 6.675278244301182 0 0 0
1639 1 14.540970236286459 -0.3108108244911847 6.67205610550968 0 0 0
1964 1 15.101300947124567 14.438844581555397 6.6119490328928245 -1 0 0
1998 1 14.400910410541034 14.56430685942998 5.725209733505578 0 0 0
2002 1 0.3572264083442547 0.41106595725678907 7.386074381923392 0 0 0
2006 1 2.056453889435434 0.571125798124218 7.3871467735145755 0 0 0
2005 1 1.222643089961981 15.181868981074665 7.415084886153609 0 -1 0
2008 1 1.089804428507673 0.5232767056431873 8.209864117455226 0 0 0
2010 1 3.5080215415920057 0.4650169920879531 7.504072876214605 0 0 0
2009 1 2.782229327067979 -0.1973401872290039 7.468665160700524 0 0 0
2014 1 5.126067288443181 0.45817231212739706 7.482598132623654 0 0 0
2018 1 6.69178251403593 0.37152551695997904 7.492860931213831 0 0 0
2022 1 8.204069726229019 0.5075591906146328 7.5058980395662465 0 0 0
2025 1 9.000116356605098 15.249730836342255 7.430966686741081 0 -1 0
1632 1 10.688961020126438 0.49389834672690647 6.829848417862798 0 0 0
2026 1 9.805137888672554 0.4498919830206375 7.506378139730376 0 0 0
2029 1 10.578180448520037 15.227988483708685 7.552773069783237 0 -1 0
2030 1 11.416036041201831 0.4167089868270739 7.591111495703672 0 0 0
2033 1 12.171365196915978 -0.30480109883159456 7.420761897177322 0 0 0
2034 1 12.895230471951777 0.4559199449818018 7.428759750439627 0 0 0
2037 1 13.772517740836474 -0.1761072250192472 7.385047123314558 0 0 0
2040 1 13.684599424654817 0.5131852925012517 8.198519410842177 0 0 0
2038 1 14.616461539194333 0.42809756485343786 7.541902276696174 0 0 0
2039 1 14.412992654246999 -0.27281728952842077 8.209240752229881 0 0 0
1644 1 15.20271953812151 2.098529732426665 6.612496147816193 -1 0 0
2042 1 0.4314151908940569 2.113699866492609 7.529536067469353 0 0 0
2041 1 -0.3104311536744788 1.3585029462144036 7.407723702647579 0 0 0
2045 1 1.2615111873744913 1.407920287576124 7.643342092502769 0 0 0
2046 1 1.918825966068995 2.1198516418886095 7.473856012521664 0 0 0
2049 1 2.838882467548255 1.2265923802899668 7.530830944270145 0 0 0
2050 1 3.64794559434841 1.9755877677048193 7.486178255318868 0 0 0
2052 1 2.808305421931963 2.1081788112917774 8.222396757516375 0 0 0
2053 1 4.3236555235172265 1.2290963808987898 7.5055871822716185 0 0 0
2054 1 5.127804716318043 2.0837720649232025 7.605678550259356 0 0 0
2057 1 6.079778136601613 1.1701309476186132 7.419827192443088 0 0 0
2058 1 6.649626485603378 2.022606479950812 7.567083296597032 0 0 0
2061 1 7.531709207075856 1.1996918392418319 7.418250833479025 0 0 0
2062 1 8.311367291395428 1.953823678312005 7.447958050697341 0 0 0
2065 1 8.91229436167815 1.157028829796377 7.425606327768882 0 0 0
1672 1 10.44700801906145 2.0458692024084506 6.787733549573636 0 0 0
2066 1 9.746106014486735 2.0256601403826697 7.513549679458735 0 0 0
2069 1 10.524813326106809 1.2879508740957926 7.526217881725733 0 0 0
1671 1 11.380638723506078 1.2430518005543623 6.8302727670102446 0 0 0
1676 1 12.056984262055359 1.9492432818587697 6.755913568119249 0 0 0
2073 1 12.076864371919992 1.3407202280770831 7.604246449984235 0 0 0
2070 1 11.310118214137777 2.1827731889247417 7.373917690713936 0 0 0
2077 1 13.783428402410152 1.339151781230121 7.445025950218527 0 0 0
2074 1 12.861320074017954 2.214324441103299 7.4840653835365405 0 0 0
2078 1 14.474878004939725 2.177261278872547 7.3237258497475946 0 0 0
2044 1 15.121683201262321 2.1529658123058626 8.211461139941342 -1 0 0
2082 1 0.46677485496681936 3.668031845466995 7.487299114481969 0 0 0
2081 1 15.213673147390605 2.994321966131077 7.374612794056729 -1 0 0
2085 1 1.1183458427744524 2.884171951840714 7.3633825668859805 0 0 0
2086 1 1.9046100911939692 3.580350419534222 7.640392167658286 0 0 0
2089 1 2.874443395154196 2.8600858997705503 7.455264745205474 0 0 0
2090 1 3.7374065222272934 3.537722031218171 7.491639489526167 0 0 0
2091 1 3.488906914486245 2.9060287643427007 8.254142387548804 0 0 0
2093 1 4.4615627268558855 2.8343606407101665 7.612317606923071 0 0 0
2094 1 5.160683518811296 3.6435096490679753 7.489349954316367 0 0 0
2097 1 5.946962839569976 3.0364161223589323 7.549823616107438 0 0 0
2098 1 6.696515360849118 3.735278810130014 7.47644194580534 0 0 0
2101 1 7.514695357662578 2.672715798181045 7.4529918810217 0 0 0
2102 1 8.227054434372665 3.411216205623743 7.503352891028536 0 0 0
2105 1 8.960223688121879 2.808395511267096 7.624162430493424 0 0 0
2108 1 9.132894790827752 3.587505251554648 8.297755219625543 0 0 0
1707 1 9.78786405363174 2.9041461496915133 6.688253496671836 0 0 0
2106 1 9.818261884725938 3.5772179111252633 7.528328545296034 0 0 0
2109 1 10.50037333548996 2.8456000520957385 7.455857446099767 0 0 0
2110 1 11.387596167476921 3.6580265525889053 7.339337350851583 0 0 0
2113 1 12.05248660815974 2.8736839288678135 7.418792754134551 0 0 0
2111 1 11.27172061124637 2.9004282683898293 8.2260706043757 0 0 0
2116 1 12.054631065022154 3.563655817568498 8.13764283322265 0 0 0
2114 1 12.85399410801493 3.62839640760255 7.464076835189778 0 0 0
2117 1 13.66624193766419 3.0095956831582473 7.421375993079986 0 0 0
2118 1 14.470526836067794 3.6545466238879327 7.409961894497076 0 0 0
2122 1 0.5814682851509327 5.162170945729103 7.579068119436199 0 0 0
1727 1 2.0046229369679356 4.277203989430849 6.74961213609278 0 0 0
2125 1 1.280420364585122 4.3790723563675655 7.459459571796065 0 0 0
2126 1 2.025754346091827 5.139758155423527 7.505384612996352 0 0 0
2130 1 3.4671748220274377 5.015613979321439 7.589177593677462 0 0 0
2129 1 2.7577682219940516 4.242952444597922 7.428023441365804 0 0 0
1736 1 4.364314185868128 5.037350861654497 6.77376202435539 0 0 0
2133 1 4.371675629286331 4.392668209612973 7.516700244037241 0 0 0
2134 1 5.167011314186146 5.235005311702882 7.5317699310544715 0 0 0
2137 1 5.831742221842097 4.425338227536084 7.480938628289481 0 0 0
2138 1 6.732987326276532 5.16910801416911 7.438901168712839 0 0 0
2141 1 7.564273245163692 4.2466448410641835 7.446902991659421 0 0 0
2142 1 8.352040110629343 5.188202314436322 7.470409130304733 0 0 0
2145 1 9.068360413697988 4.288066557307067 7.494704946313541 0 0 0
1747 1 9.616999200455023 4.3025320398434035 6.616882053498447 0 0 0
2149 1 10.542837711302358 4.483855040523314 7.510694904945308 0 0 0
2146 1 9.701101424465918 5.224576869038809 7.383668844563405 0 0 0
2150 1 11.318023627712869 5.16061179391766 7.361435668033911 0 0 0
2153 1 12.09224964762501 4.474706640585959 7.3864761471220834 0 0 0
2156 1 12.023468830530806 5.135031324324521 8.246127490158653 0 0 0
2157 1 13.727938899426093 4.363741415468776 7.368043740813469 0 0 0
2154 1 12.885727028358346 5.14014177346899 7.346732573614006 0 0 0
2121 1 -0.27095040718954444 4.364051698228869 7.41226673772239 0 0 0
2158 1 14.479061463583221 5.150217902214245 7.527089465071867 0 0 0
2159 1 14.431148123740101 4.334445307235261 8.165246958087064 0 0 0
2162 1 0.6003962957519813 6.5747937617310175 7.570176745547027 0 0 0
2161 1 -0.27036904783139853 5.859036678050435 7.43402654082496 0 0 0
1767 1 2.0426106109512068 5.875074670106231 6.618354201078814 0 0 0
2165 1 1.3049488252504908 5.882793391527798 7.568505982871858 0 0 0
1771 1 3.4775078942799404 5.785374756130036 6.552271916145784 0 0 0
2169 1 2.849227328502485 5.839156820551008 7.364645212523939 0 0 0
2170 1 3.490199096403013 6.628765411745224 7.468568356026477 0 0 0
1776 1 4.259628808181012 6.542775859095797 6.76617108851375 0 0 0
2173 1 4.245244275259966 5.890750602347231 7.520620701931503 0 0 0
2174 1 5.22577571383372 6.6545801159775175 7.389826626117966 0 0 0
1779 1 6.7120678876632605 5.861212599893007 6.593387903506454 0 0 0
2177 1 5.993995188034709 5.8525452302047 7.493143160311418 0 0 0
2178 1 6.724471750403412 6.551625384729065 7.56636619528465 0 0 0
2181 1 7.589735840211949 5.924365754698732 7.5975487709959495 0 0 0
1788 1 9.105846062336688 6.737789950224971 6.5777774440718355 0 0 0
2185 1 9.009972203044995 5.982503954228944 7.38808690205674 0 0 0
2182 1 8.334294622569999 6.727248468914769 7.448108656197534 0 0 0
1787 1 9.754866521446509 5.912524547212702 6.589509001489293 0 0 0
2189 1 10.687801953173125 5.990474578778585 7.405884473856138 0 0 0
2186 1 9.757609855423475 6.657367345579814 7.454069395255823 0 0 0
2193 1 12.099578131159376 5.849304903313416 7.412382303271749 0 0 0
2190 1 11.286661848519916 6.78586787047958 7.512669196453173 0 0 0
2197 1 13.62513727180788 5.832809665995862 7.407977033006163 0 0 0
2194 1 12.754386028248664 6.704346453781272 7.399131850955582 0 0 0
1764 1 15.154131272373863 6.650227757759688 6.68554836638098 -1 0 0
2198 1 14.556340944986136 6.651449450658731 7.463541692920861 0 0 0
1803 1 0.4348197000085109 7.466708016296713 6.67819958298548 0 0 0
2201 1 -0.2526792852363038 7.508551797510663 7.469817918791047 0 0 0
2166 1 1.9809491459346056 6.674142546071338 7.513636482987469 0 0 0
2205 1 1.308013769827066 7.462334542223986 7.485543137371911 0 0 0
2209 1 2.783294542576962 7.465963369195455 7.514925266716139 0 0 0
2213 1 4.349811028896679 7.398088399914549 7.419278573275473 0 0 0
2217 1 6.013460398947653 7.386676510474504 7.410762271263508 0 0 0
2221 1 7.429439969329512 7.394285049017135 7.450754032939525 0 0 0
1823 1 8.319600873723846 7.400077580800078 6.646822319815973 0 0 0
2225 1 9.181960686771706 7.539586014880064 7.376061138444756 0 0 0
1827 1 9.798218901103066 7.638010178425014 6.559893242219209 0 0 0
2229 1 10.52445557740489 7.488305415108139 7.424722000365114 0 0 0
2227 1 9.801542955107674 7.494921059977832 8.308462228669114 0 0 0
2233 1 12.07362284295214 7.483940561463526 7.474352063791014 0 0 0
2237 1 13.566969973687836 7.648765866889864 7.573028724973002 0 0 0
1843 1 0.5368780929058904 8.967728092362954 6.759042153339144 0 0 0
2202 1 0.4257832558404012 8.29354507664996 7.538000109499837 0 0 0
2206 1 2.0843828379295046 8.226239189194946 7.495700760755081 0 0 0
2245 1 1.2358298473824663 9.134633909676232 7.55902856927568 0 0 0
2210 1 3.5998414785277086 8.125310439929084 7.584829266817465 0 0 0
2249 1 2.7812345006029067 8.954500831664674 7.517346992953773 0 0 0
2214 1 5.373278870291609 8.159135469416285 7.431757855787674 0 0 0
2253 1 4.310280582391032 9.017081236246607 7.498305989266662 0 0 0
2218 1 6.783893631817687 8.159761998324164 7.467608896556477 0 0 0
2257 1 6.015794716764763 9.102510437299063 7.4098488510435505 0 0 0
1824 1 7.466132069071241 8.1451229382773 6.699095610814536 0 0 0
2261 1 7.521983926599776 9.024602762252577 7.484809420695295 0 0 0
2224 1 7.475003116330677 8.230469930229027 8.293016018152532 0 0 0
2222 1 8.149133935907827 8.151886817071063 7.541504294569712 0 0 0
2265 1 8.986942274737679 8.95650812833907 7.374334914319028 0 0 0
2228 1 9.033268426169023 8.30118275187413 8.252365352994872 0 0 0
2263 1 8.178328698585432 8.988842187023625 8.169773882240825 0 0 0
1832 1 10.548088520240725 8.303707297590112 6.569420963756008 0 0 0
2226 1 9.858173547535475 8.268115801462734 7.419596444307734 0 0 0
2269 1 10.564765705440482 9.041793970540802 7.476830382774151 0 0 0
2267 1 9.764038695165087 9.090190324485558 8.228193508084331 0 0 0
2230 1 11.270536494688034 8.244707477978093 7.46691331372914 0 0 0
2273 1 11.953224243526183 9.063557737413277 7.571667350248923 0 0 0
2234 1 12.813716219181682 8.307918315402208 7.507077666601086 0 0 0
2277 1 13.623218253050474 8.99625756976291 7.4609904035952015 0 0 0
2238 1 14.467923068707254 8.226352509242616 7.54443185280074 0 0 0
2241 1 15.210266116022858 8.908585810858327 7.686478599715378 -1 0 0
2242 1 0.5076431280672923 9.725295276214961 7.413355378669039 0 0 0
2285 1 1.2461540525289336 10.487686573109627 7.377969087501701 0 0 0
2246 1 2.1067975822493077 9.75005115057246 7.532826828586027 0 0 0
2289 1 2.8503778740693293 10.64366768226516 7.535223805380138 0 0 0
2250 1 3.6353849773595943 9.836512380203189 7.676258853434923 0 0 0
2291 1 3.534610631976583 10.539284779287538 8.402977093321486 0 0 0
2293 1 4.362783755606887 10.68201008009694 7.625848669708644 0 0 0
2254 1 5.268643224127444 9.756495801177685 7.498618473545072 0 0 0
2297 1 5.945842362451284 10.544756907653007 7.403827776259982 0 0 0
2258 1 6.837143725712901 9.84973266061273 7.378114390341208 0 0 0
2301 1 7.493695377014333 10.737263610012825 7.472437358525168 0 0 0
2262 1 8.209333391558623 9.803161163877043 7.3865764979779795 0 0 0
2305 1 9.062951877056737 10.630252780884021 7.429321237641716 0 0 0
2266 1 9.674177718403481 9.744098481329825 7.436697239236139 0 0 0
2309 1 10.503510277089973 10.560676435242655 7.524930213055599 0 0 0
2270 1 11.298968937021264 9.889416501815106 7.625304314860409 0 0 0
2313 1 12.029612998560378 10.587292696653975 7.510454520658226 0 0 0
2311 1 11.396919458397658 10.642998806870125 8.291071635843704 0 0 0
2274 1 12.856805497441236 9.698787467716059 7.53814032909441 0 0 0
2317 1 13.680742877313342 10.625441423513251 7.469215840548558 0 0 0
2281 1 15.105246938231268 10.565287768109066 7.4312626144450995 -1 0 0
2278 1 14.339442076477091 9.715202388353944 7.560371179785357 0 0 0
2319 1 14.444322399550234 10.530015130872084 8.251722569825734 0 0 0
2282 1 0.41708083550162733 11.223592963094092 7.3973869340014735 0 0 0
2323 1 0.4444085339295044 12.124438395859464 8.236831563415905 0 0 0
2325 1 1.1407284107810702 12.1398941426908 7.420463585096627 0 0 0
2286 1 2.0507522556906084 11.340351617936783 7.543636600768645 0 0 0
2290 1 3.587144171301675 11.39883788435288 7.688899757112162 0 0 0
2329 1 2.8273589400842027 12.091497342287955 7.456291125991657 0 0 0
2333 1 4.489778617778878 12.10144335310742 7.42223607044575 0 0 0
2294 1 5.245510623917452 11.363193032882464 7.535663297623413 0 0 0
2337 1 5.861015766113084 12.204207283576395 7.306146442671511 0 0 0
2298 1 6.660346939280835 11.508755712482458 7.337904031696938 0 0 0
2341 1 7.468125271870384 12.154505051236008 7.462249145305018 0 0 0
2302 1 8.221477447068448 11.44509465387382 7.492605262921334 0 0 0
2345 1 9.091740382001035 12.104718151466095 7.510404181997135 0 0 0
2306 1 9.826545592468602 11.403777395832929 7.475373934039298 0 0 0
2349 1 10.546798290216437 12.161147435451344 7.37202188231317 0 0 0
2312 1 10.680910379784773 11.364523877937291 8.119370207242895 0 0 0
2353 1 12.132662409224647 12.178330034583368 7.551111715211781 0 0 0
2310 1 11.478021800891042 11.468662278061387 7.412592075014895 0 0 0
2314 1 12.872810881056552 11.27226271131293 7.308843501284941 0 0 0
2357 1 13.703105214467424 12.049298563981239 7.393787845276729 0 0 0
2320 1 13.65583697577216 11.32289685552087 8.201616608637977 0 0 0
2321 1 15.188478591036585 12.069236593810324 7.302409059226962 -1 0 0
2318 1 14.418132650330929 11.299078256836637 7.367235318538589 0 0 0
2359 1 14.415594228121265 12.187523846702373 8.215839899660594 0 0 0
2322 1 0.4391970815299585 12.952355180603597 7.440873155882938 0 0 0
2326 1 2.08276364558432 12.975542309259254 7.291059160044007 0 0 0
2365 1 1.257771209432789 13.65070645838654 7.255107862063608 0 0 0
2330 1 3.700165010652661 12.891290124197862 7.461789525482864 0 0 0
2369 1 2.9035955962872286 13.762172559228052 7.432715839799566 0 0 0
2334 1 5.0618804152155 12.879436323704514 7.491669875821144 0 0 0
2373 1 4.434185933568581 13.74445590410247 7.491209176439457 0 0 0
1979 1 6.83151644969951 13.664541106152608 6.6363082340512225 0 0 0
2377 1 6.021298136269557 13.543214668426405 7.520362709071403 0 0 0
2338 1 6.821531346643352 12.888543855270278 7.4569058508787505 0 0 0
2381 1 7.551238083000469 13.7564376508208 7.371588699733685 0 0 0
2342 1 8.232255680273578 12.89754048724529 7.446655085749747 0 0 0
2385 1 8.973119571661183 13.605837424383175 7.465851432632726 0 0 0
2383 1 8.246807719097628 13.638761409076356 8.13333469410654 0 0 0
2346 1 9.827252974981615 12.782023457270213 7.420480409817795 0 0 0
2389 1 10.635011544215008 13.684851905152001 7.466374546547858 0 0 0
2350 1 11.331041166903585 12.88197799971761 7.468668359001415 0 0 0
2393 1 12.07197114016978 13.719854485346637 7.320707193259181 0 0 0
2354 1 12.918482152456455 12.925601134467556 7.472348958294117 0 0 0
2360 1 13.638878150124828 12.886182775998854 8.255537797523537 0 0 0
2395 1 12.862590720697803 13.694975228416965 8.188410762050918 0 0 0
2361 1 15.17662672985784 13.779426234421702 7.546035996233491 -1 0 0
2358 1 14.427626910756679 12.959321509131382 7.477377062145203 0 0 0
2001 1 -0.30293260157280444 15.16458465635554 7.35517338005656 0 -1 0
2362 1 0.42907403130737665 14.402604421996614 7.48838356805433 0 0 0
2364 1 15.159237431188924 14.492672143877847 8.283139009110908 -1 0 0
2366 1 2.022955895384022 14.431827339137847 7.4091006366684855 0 0 0
2368 1 1.3594189662745757 14.46745598510103 8.163172536400655 0 0 0
2370 1 3.730029255403453 14.453531538126374 7.543674474212465 0 0 0
1976 1 4.38379407307243 14.50239647435897 6.647165249099548 0 0 0
2013 1 4.374842984533915 -0.24050664613726508 7.389861672510775 0 0 0
2374 1 5.212188092383745 14.440981838123353 7.4964840532049655 0 0 0
1980 1 5.9552223100459285 14.416672511211118 6.555464404630919 0 0 0
2017 1 5.872154912855671 -0.3002111133024991 7.500397207810323 0 0 0
2378 1 6.647495251942986 14.44997954092224 7.492188563019555 0 0 0
2021 1 7.51080319401369 15.173696099891174 7.512173562177646 0 -1 0
2382 1 8.282152075231949 14.507517866146902 7.415589501736277 0 0 0
2027 1 9.80948371006889 15.195051655393328 8.223745223571303 0 -1 0
2386 1 9.814634574934821 14.455655144500035 7.454238761118666 0 0 0
2392 1 10.578407687127946 14.485453355056148 8.307775371524905 0 0 0
1996 1 12.188075953305145 14.456308882646724 6.466714281598193 0 0 0
2390 1 11.338703824655202 14.524943104739837 7.450123933927459 0 0 0
2397 1 13.61903765946715 13.671165679483789 7.277473335296849 0 0 0
2394 1 12.820693420964126 14.377852960028793 7.304115240503182 0 0 0
2398 1 14.44374906981237 14.55077249733123 7.396502612416884 0 0 0
2003 1 0.45107077401199325 15.072685332520745 8.228399347574914 0 -1 0
2402 1 0.39706241237653883 0.5000618707745738 8.969411147119015 0 0 0
2004 1 15.232727092747655 0.3478975320418768 8.274292213121722 -1 0 0
2007 1 1.9670611785073855 -0.1390574923702038 8.144097409277062 0 0 0
2406 1 2.059603991450247 0.48563890426693923 9.065046978339648 0 0 0
2012 1 2.8053484780480593 0.46595516059903597 8.277748655461512 0 0 0
2410 1 3.575039390340917 0.47955951447346745 9.01465869913049 0 0 0
2409 1 2.857148115390274 -0.2449845961909563 9.05760630671515 0 0 0
2016 1 4.365520746623173 0.45164635992141233 8.205515472742523 0 0 0
2414 1 5.2102027426763735 0.4849502182875899 8.921244276097333 0 0 0
2020 1 5.966187203359717 0.5170742741062428 8.23508327309543 0 0 0
2418 1 6.786066046776427 0.5477793517004435 9.128708119658139 0 0 0
2417 1 5.857861754977488 15.239362139366431 8.947082566719992 0 -1 0
2019 1 6.587531375384639 15.244543434910543 8.25195313662179 0 -1 0
2024 1 7.47568535448964 0.4252860309105123 8.367686841278555 0 0 0
2422 1 8.342681381076456 0.41939944275786833 8.970432398165034 0 0 0
2028 1 9.079014263336454 0.44027558616803575 8.305311079996262 0 0 0
2425 1 9.063074135181541 15.14158602162944 9.049093167275082 0 -1 0
2032 1 10.597138495153459 0.42531351358746416 8.289901162469786 0 0 0
2426 1 9.85204262448373 0.3416461167862834 9.069020561049005 0 0 0
2036 1 12.22140452429014 0.5292095550264412 8.175731333323832 0 0 0
2430 1 11.326963034228115 0.42412770294364066 9.098762429421132 0 0 0
2434 1 12.88869683744936 0.47792468447746184 8.968403651368266 0 0 0
2437 1 13.614385618228841 -0.3013103643771187 8.950741603679575 0 0 0
2035 1 12.939804904713952 -0.2975404141749554 8.136014909513047 0 0 0
2401 1 15.221606490448167 15.209864259107167 9.063805155309556 -1 -1 0
2438 1 14.442656444372904 0.4368379751004634 8.980220343179269 0 0 0
2043 1 0.32469141246826594 1.3583921775510692 8.24420137893771 0 0 0
2442 1 0.36772294560318886 2.15891134193514 8.85262142260093 0 0 0
2441 1 15.189160265066185 1.2248567417095415 9.068269069499664 -1 0 0
2048 1 1.160642087712768 2.2963719688220556 8.239092443417888 0 0 0
2047 1 2.0712476976047163 1.2905543659074175 8.318502251960293 0 0 0
2445 1 1.2430193692951115 1.3599470400552296 8.908152188561477 0 0 0
2446 1 2.067051133512066 2.0688427303574506 9.038235646325788 0 0 0
2051 1 3.5777457639552575 1.29475307673795 8.244265723478048 0 0 0
2449 1 2.7588904772374416 1.3027220931642858 9.082103123125368 0 0 0
2450 1 3.508107326504337 2.069380168456662 9.041119987992587 0 0 0
2055 1 5.146299246853519 1.214679407871312 8.18942316714595 0 0 0
2056 1 4.253880943739534 2.085297439870329 8.355954717818868 0 0 0
2453 1 4.267821915322485 1.2577495896621445 9.010131511147044 0 0 0
2454 1 4.977001848332072 2.0611841108471234 9.186173059084197 0 0 0
2060 1 5.893177220252101 2.1357677410553815 8.400572293188905 0 0 0
2457 1 5.939564776878826 1.2536582998970527 8.982840480582738 0 0 0
2458 1 6.762106929194172 2.000920276668487 9.003059214945552 0 0 0
2059 1 6.677179349400064 1.2376370327666315 8.335331289486149 0 0 0
2461 1 7.505539060160506 1.2455536616684257 8.954420667637805 0 0 0
2064 1 7.443675289360962 2.0534065700033297 8.273857581276143 0 0 0
2462 1 8.395477470584577 2.0317130693973215 8.991748599737821 0 0 0
2063 1 8.293794907728511 1.1709408651958446 8.345994163815224 0 0 0
2068 1 9.027009235116378 1.8916533159956637 8.19010328358511 0 0 0
2465 1 9.132828733255472 1.2669244329637825 9.043882013523671 0 0 0
2072 1 10.624272263839291 2.066761581967525 8.145130743203271 0 0 0
2067 1 9.892933572241489 1.1726103684558338 8.36324128305581 0 0 0
2469 1 10.623008948195903 1.269183270980757 9.223145853709546 0 0 0
2466 1 9.820000074389888 2.063120841762284 9.015698312079614 0 0 0
2071 1 11.334357784245853 1.2869506015606866 8.32930273526733 0 0 0
2076 1 12.062086918012387 2.184018760140331 8.200545483075022 0 0 0
2473 1 12.044606882023842 1.3221026309434318 8.978043059789165 0 0 0
2470 1 11.283217294978243 2.088919833451935 8.971771159704957 0 0 0
2075 1 12.935776133563841 1.3715937648596443 8.102842540344412 0 0 0
2080 1 13.797367028195147 2.1026462221990436 8.086855143030391 0 0 0
2474 1 12.92045852285236 2.1327393760087117 8.848966280205556 0 0 0
2477 1 13.693230321477678 1.2553299039751353 8.983469062495825 0 0 0
2079 1 14.474723254724932 1.3095964936733318 8.25514217438781 0 0 0
2478 1 14.396988235989124 2.0235643203869262 9.045055973089127 0 0 0
2083 1 0.39881796361166577 3.0308494252662728 8.249014077749127 0 0 0
2482 1 0.44303039267568056 3.6476057829899786 9.124304535614492 0 0 0
2088 1 1.1894942289404467 3.6319180408386305 8.306655892352193 0 0 0
2087 1 2.0560706551343553 2.91266457954948 8.351277331121473 0 0 0
2485 1 1.3022590862609102 2.951919018509818 9.056666224294986 0 0 0
2486 1 2.011339620581075 3.5921797604433565 9.131479749916675 0 0 0
2092 1 2.756016699381208 3.6255272433909296 8.27862794220222 0 0 0
2490 1 3.48000691798075 3.595484438715007 9.109495896528468 0 0 0
2489 1 2.783849585318152 2.83597905013411 9.163400491571235 0 0 0
2096 1 4.390478595201895 3.6365412219411333 8.257990407561085 0 0 0
2095 1 5.1116324852818265 2.80012182718807 8.325717065611286 0 0 0
2493 1 4.253338245647006 2.8314016173128813 9.087000621339183 0 0 0
2494 1 5.09362549612871 3.670189953737137 9.080431858083035 0 0 0
2100 1 5.879902010653825 3.657802710614436 8.373676034650913 0 0 0
2497 1 5.880960792792811 2.938070991009276 9.05981894152292 0 0 0
2099 1 6.804715163761186 2.8147614131813032 8.269798162861811 0 0 0
2498 1 6.671118511818261 3.748616144253317 9.142550066485018 0 0 0
2104 1 7.538044491638058 3.56106942135239 8.342007836974403 0 0 0
2501 1 7.473683672183706 2.794533017877312 8.981569237499002 0 0 0
2103 1 8.338946946232813 2.829734178508681 8.394129620489426 0 0 0
2502 1 8.374109345253906 3.6901183881601485 9.040596277333258 0 0 0
2505 1 9.09940454862911 2.8081779031543332 9.07127350154921 0 0 0
2112 1 10.573977713249743 3.553014893571382 8.333651350765788 0 0 0
2107 1 9.742028522537328 2.818431887501278 8.20826538211308 0 0 0
2509 1 10.552647366114826 2.803582974378656 8.991115851791672 0 0 0
2506 1 9.811408921472559 3.576548438537457 9.04864009837723 0 0 0
2510 1 11.372541671068419 3.618480391090682 9.11041289453815 0 0 0
2513 1 12.123123535016418 2.87583817996461 8.993327096500817 0 0 0
2115 1 12.917285309937803 2.946677366874791 8.214016061785525 0 0 0
2120 1 13.632452731872068 3.660090334995732 8.251748508395899 0 0 0
2514 1 12.91724712954747 3.5588914609000812 9.172453649390842 0 0 0
2517 1 13.741891576265552 2.867736699171127 8.919350032066912 0 0 0
2084 1 -0.31200512195086105 3.717659831399028 8.255635607592765 0 0 0
2481 1 15.108961958155977 2.886252865614448 8.989147893722578 -1 0 0
2119 1 14.469916479462608 2.9239817013168636 8.201225347806641 0 0 0
2518 1 14.454211383209756 3.6263063422728137 8.946190189657148 0 0 0
2123 1 0.49851879590131454 4.386124667358438 8.208384972505637 0 0 0
2522 1 0.4921729950644197 5.094642623159633 9.06408875941787 0 0 0
2128 1 1.267725518781802 5.1029270460569585 8.311873526933343 0 0 0
2127 1 2.0138152303245085 4.3664773197944715 8.330199217022056 0 0 0
2525 1 1.2538029602724505 4.38904122788041 8.949231155464329 0 0 0
2526 1 1.9356514568190408 5.154368371669439 9.114219933890805 0 0 0
2131 1 3.5972653938964 4.25138605152374 8.196233902062158 0 0 0
2132 1 2.680516571033768 5.119348742932642 8.13407063142537 0 0 0
2530 1 3.4328183026538635 5.12132528174197 8.971586177080475 0 0 0
2529 1 2.7331839519855907 4.378202636137524 9.085737003513884 0 0 0
2135 1 5.060522582847441 4.483714778127647 8.218822797480996 0 0 0
2136 1 4.268337330455529 5.159419236136059 8.23085067311052 0 0 0
2533 1 4.307787533149851 4.374696651698304 9.09100098414449 0 0 0
2534 1 5.032275224059528 5.147672213968417 9.018026101536364 0 0 0
2139 1 6.831721568816136 4.390820999166884 8.18315006533005 0 0 0
2140 1 5.920250457980869 5.190090984707567 8.304428530509114 0 0 0
2537 1 5.767965062113568 4.4246436231022175 9.020014331519064 0 0 0
2538 1 6.816020997156176 5.099909908812539 9.057216738415736 0 0 0
2143 1 8.373653198685833 4.466280738887924 8.238853802692716 0 0 0
2144 1 7.619887418523057 5.150353147524963 8.272932450726557 0 0 0
2541 1 7.588268423763518 4.457224126060404 9.074526014535081 0 0 0
2542 1 8.367215900752047 5.151924113474913 8.992287212786579 0 0 0
2148 1 9.140934844970886 5.187674736257424 8.228737491604342 0 0 0
2545 1 9.115911947706586 4.419143794487977 8.952725119422485 0 0 0
2147 1 9.809146514563928 4.488788179911243 8.200591906142364 0 0 0
2152 1 10.576934662937653 5.213363398847476 8.19761229316336 0 0 0
2549 1 10.689513065021735 4.4058858443678615 9.103620517206505 0 0 0
2546 1 9.905703859881871 5.196655372454012 9.059038253318604 0 0 0
2151 1 11.428963193257953 4.235115369331597 8.331900024448956 0 0 0
2550 1 11.427142629819262 5.036784459696862 9.079221799579337 0 0 0
2553 1 12.254231848414658 4.322783257694449 9.05829026505215 0 0 0
2160 1 13.77543153665519 5.161878794333368 8.159500056838667 0 0 0
2155 1 12.865705455668046 4.43142085389487 8.22043477347015 0 0 0
2554 1 12.82057755315238 5.2536176888761315 9.03894953929776 0 0 0
2557 1 13.757241714078631 4.415675337886168 9.007847272365876 0 0 0
2521 1 -0.263975680836138 4.411822828039165 9.041278874394266 0 0 0
2124 1 -0.2642912489573419 5.22852588686738 8.305889580392272 0 0 0
2558 1 14.491342661592554 5.174368121328221 9.038454005170802 0 0 0
2163 1 0.505122507246541 5.83814348794864 8.322348859198915 0 0 0
2561 1 -0.21672088703850662 5.93297006546948 9.050499152807447 0 0 0
2167 1 1.9887181971511496 5.812031467074159 8.285889062326184 0 0 0
2565 1 1.1942914920658854 5.886413635866536 9.092077769008874 0 0 0
2566 1 2.022976116905583 6.65352887336249 9.077080661589573 0 0 0
2168 1 1.274440616535006 6.5892180009945385 8.307137119600434 0 0 0
2171 1 3.534339230200658 5.885602738914636 8.313576286053447 0 0 0
2569 1 2.7823686827480794 5.896711356922068 9.029676170182132 0 0 0
2570 1 3.615486274384491 6.565982800629961 9.045261901591399 0 0 0
2175 1 5.039828277301763 5.872803210027329 8.285336936155826 0 0 0
2176 1 4.278812276016458 6.6602223833311 8.27869257197371 0 0 0
2573 1 4.280882907149511 5.7921030258893405 9.043911960378058 0 0 0
2574 1 5.2127690576201005 6.5914352490994705 8.992293586640795 0 0 0
2180 1 5.966534810532335 6.514958516288308 8.340212595922697 0 0 0
2179 1 6.764718948422942 5.825544097056587 8.324995337364506 0 0 0
2577 1 5.873905265498356 5.814160922242314 9.12861472482555 0 0 0
2578 1 6.755329692051871 6.6490427000403844 9.135931964963415 0 0 0
2184 1 7.417080246469104 6.706863815775566 8.328840390672102 0 0 0
2581 1 7.524438797949192 5.85591106549427 9.012498157759062 0 0 0
2183 1 8.35447624667934 6.0376537303792555 8.303188442718689 0 0 0
2585 1 9.041623342036821 5.987084295001015 9.111936335226737 0 0 0
2188 1 9.051854898676908 6.76338487674166 8.211630615233144 0 0 0
2192 1 10.527958600199788 6.70248531586449 8.216004611503966 0 0 0
2187 1 9.796053720468905 5.958147667489272 8.244311503845339 0 0 0
2589 1 10.522920656549669 5.911662730161373 9.119658440750783 0 0 0
2191 1 11.172281191426421 5.973443589754843 8.406593372471601 0 0 0
2593 1 11.92982347392227 5.861801869466837 9.052122779863996 0 0 0
2590 1 11.191596151630641 6.75730795820284 9.042490346984938 0 0 0
2196 1 12.143818691932498 6.564965015579998 8.255839688551912 0 0 0
2200 1 13.607732647079413 6.607309962563706 8.198191836661543 0 0 0
2195 1 12.907506326437112 5.886881673504681 8.204785530913867 0 0 0
2597 1 13.65580506931093 5.814033941830954 9.023675203857952 0 0 0
2199 1 14.387703513674541 5.982211240253181 8.314513147139714 0 0 0
2598 1 14.560913176486874 6.560007493528688 9.038415680569926 0 0 0
2164 1 -0.1476770126215114 6.718813084489654 8.232157804636113 0 0 0
2562 1 0.5733903791407196 6.729306396592701 9.120300557998164 0 0 0
2203 1 0.5756910007067668 7.495977144831094 8.201799683307996 0 0 0
2207 1 1.9784921320967968 7.3881836072068605 8.303782078912523 0 0 0
2605 1 1.2643202600021184 7.478569332432976 9.055673349214608 0 0 0
2172 1 2.7401831243601618 6.532086534474093 8.206747862487049 0 0 0
2211 1 3.4389021168230243 7.263586387183988 8.29962453267764 0 0 0
2609 1 2.9035746294778795 7.503391099926657 9.221426557369266 0 0 0
2215 1 5.093503128393872 7.354581426204923 8.20097713199888 0 0 0
2613 1 4.245155781684663 7.340372102635216 9.06852521205645 0 0 0
2220 1 5.970684043840829 8.228490308202794 8.194996679061518 0 0 0
2617 1 5.966971532241859 7.413992920260607 9.087109379057182 0 0 0
2618 1 6.673136572630819 8.214840413586572 9.0075405240048 0 0 0
2219 1 6.697643660120849 7.389643605803712 8.387123054997879 0 0 0
2621 1 7.607712284363849 7.42559417993527 8.986976355097674 0 0 0
2223 1 8.306615611860142 7.390959601269543 8.181789201609742 0 0 0
2582 1 8.27848306489274 6.733798331129413 9.029799828289402 0 0 0
2625 1 8.936587805773637 7.533500828017068 8.981406866759393 0 0 0
2586 1 9.8212009044062 6.779594864370072 9.012827925494168 0 0 0
2629 1 10.632196490302142 7.556153773398925 8.904778345960683 0 0 0
2231 1 11.350549946367284 7.54069112272563 8.179170244881476 0 0 0
2633 1 12.092245939762524 7.422282209639941 9.05194372696974 0 0 0
2594 1 12.842406272366851 6.532744580680388 8.896876425741205 0 0 0
2235 1 12.798982321115883 7.435121216945578 8.265092816929755 0 0 0
2637 1 13.630313654608848 7.288774327833428 8.935655428508685 0 0 0
2634 1 12.840211745304156 8.205783162160689 9.073726926482308 0 0 0
2601 1 -0.29992092607748505 7.3090580570273636 9.035199636276179 0 0 0
2239 1 14.413371373972819 7.344001068853152 8.29995784885687 0 0 0
2243 1 0.4655471321942293 9.024806962505398 8.396087711759474 0 0 0
2602 1 0.4887413353938963 8.126262755068545 9.08449938346801 0 0 0
2204 1 -0.3010957000586245 8.092177929263311 8.337121082897905 0 0 0
2208 1 1.203939955241374 8.252644445170176 8.243269310691765 0 0 0
2247 1 1.990280669639382 8.952621589491809 8.344422961907092 0 0 0
2606 1 2.1208673277979324 8.220141681564392 9.06865214507285 0 0 0
2645 1 1.2516968776750992 8.984251243492935 9.11703885287156 0 0 0
2610 1 3.589690079903677 8.206482184671263 9.11411577744995 0 0 0
2212 1 2.8377534426989652 8.151986055246898 8.210488902823737 0 0 0
2251 1 3.574125893958492 9.055696305306665 8.283998375275836 0 0 0
2649 1 2.774684717304441 8.991844827460735 8.946239297323743 0 0 0
2614 1 5.19620239085471 8.17083938071876 9.009766034925814 0 0 0
2255 1 5.128292291705983 8.917622007476577 8.250621374390334 0 0 0
2216 1 4.450378278417334 8.138784520128286 8.204713757990017 0 0 0
2653 1 4.4143106835771215 8.981950951195213 9.048989109949414 0 0 0
2259 1 6.782041962089364 9.080648233467805 8.195933286808316 0 0 0
2657 1 5.850269157700456 9.01735251716974 8.898762454117318 0 0 0
2661 1 7.380406812049815 8.988191545159324 9.091018536795946 0 0 0
2622 1 8.282011197773983 8.386345210873849 9.047920434696241 0 0 0
2665 1 9.050069861392227 9.055800716950586 9.076142223568908 0 0 0
2232 1 10.602578185121416 8.33576364854418 8.251952165128646 0 0 0
2626 1 9.721935164849214 8.287857035317593 8.998265992271786 0 0 0
2669 1 10.551282907109762 9.172134452520986 9.038721076475294 0 0 0
2236 1 12.09880981565411 8.205833077352043 8.29469058997173 0 0 0
2271 1 11.28261264995744 9.08120733608055 8.328882163850324 0 0 0
2630 1 11.428371879591523 8.288105559975545 9.126991869066316 0 0 0
2673 1 12.139256732638628 9.091379883749038 9.036525646809181 0 0 0
2240 1 13.726878164378093 8.187679717804397 8.459271237044899 0 0 0
2275 1 12.90556189791413 8.995276117845144 8.329353186294586 0 0 0
2677 1 13.703832814477163 9.000015674912238 9.021868396027106 0 0 0
2638 1 14.582689680192708 8.2210360004009 9.067383710749894 0 0 0
2641 1 -0.3080929368096079 8.96307825937103 9.087501167732405 0 0 0
2279 1 14.431829969818654 8.995441966533622 8.32511283895506 0 0 0
2283 1 0.5098789407713689 10.536722795704481 8.180710337725355 0 0 0
2642 1 0.4765897635402423 9.767829448319617 9.08008275998425 0 0 0
2287 1 1.9773810290793024 10.58583881004422 8.233838618596394 0 0 0
2248 1 1.2669789336530517 9.74742658808114 8.361784534876701 0 0 0
2685 1 1.2620613108622165 10.502606499711217 9.058270515198263 0 0 0
2646 1 1.9693004678894295 9.76314373921658 9.069628646268157 0 0 0
2252 1 2.8487751515944337 9.80877419950101 8.250073383373199 0 0 0
2650 1 3.55292403381478 9.67897177589347 9.070171744625757 0 0 0
2689 1 2.760493023352551 10.576143612623387 9.110043016353693 0 0 0
2256 1 4.4207399259071405 9.698658529710126 8.317183610844737 0 0 0
2295 1 5.150172078557436 10.587889725804835 8.26679809142708 0 0 0
2693 1 4.309588807876126 10.472953780134269 9.045039368851672 0 0 0
2654 1 5.144008254167776 9.715453014299516 9.06663038952626 0 0 0
2260 1 5.940271789437246 9.82070506961259 8.163982495074478 0 0 0
2299 1 6.71603211731544 10.66978032426372 8.135063508257733 0 0 0
2697 1 6.019916257198643 10.60868326094024 8.979773008803544 0 0 0
2658 1 6.584445778845404 9.822758105849509 8.9504282907834 0 0 0
2264 1 7.5404583858511725 9.806219632375335 8.230184467752462 0 0 0
2701 1 7.388833134758421 10.556956895861148 8.915019754599076 0 0 0
2662 1 8.246496704918123 9.705790546299 9.087392718908703 0 0 0
2303 1 8.229235178181568 10.55423564965507 8.228502751017611 0 0 0
2268 1 8.899212287792196 9.803244325676488 8.21033546288804 0 0 0
2705 1 8.93647448794481 10.59362760125408 9.090909818832621 0 0 0
2307 1 9.798403055641277 10.813660843328915 8.267934728791666 0 0 0
2272 1 10.467603177660706 9.84042272905728 8.288183140721202 0 0 0
2666 1 9.709441835349278 9.912534741848091 8.953801085417357 0 0 0
2709 1 10.569357656317028 10.575048629567949 8.97365448947098 0 0 0
2276 1 12.092168028023746 9.82874484711565 8.266121423647647 0 0 0
2670 1 11.381815981675807 9.954962939190626 8.98185914824937 0 0 0
2713 1 12.17715511119173 10.655313752450162 9.102850459992453 0 0 0
2315 1 12.839135839558256 10.557404002039888 8.24506019884442 0 0 0
2280 1 13.58750527614184 9.679472331127162 8.225021496377458 0 0 0
2674 1 12.941742361849467 9.66977095006942 8.99669654150878 0 0 0
2717 1 13.65811054387169 10.609913933557262 9.017116130353337 0 0 0
2244 1 15.22247475420927 9.763687539966195 8.341949775324437 -1 0 0
2681 1 -0.30808329535891216 10.659301923610752 8.935787519922272 0 0 0
2678 1 14.472164687975386 9.725961553429393 8.967584888609416 0 0 0
2682 1 0.5273295287232727 11.358026111126229 8.918062419423805 0 0 0
2288 1 1.2823393159260967 11.369425547440503 8.10876923333334 0 0 0
2327 1 1.9655335730249957 12.24438386685567 8.187947336003543 0 0 0
2725 1 1.1568588353083158 12.084040846324609 8.939941887297035 0 0 0
2686 1 1.9408885878000444 11.345504904154378 9.02911726766757 0 0 0
2292 1 2.8626834374070147 11.285410064431822 8.34829955603648 0 0 0
2331 1 3.683301497029984 12.139992817513932 8.498569438013366 0 0 0
2690 1 3.4756991990774595 11.352119026945985 9.151033817536838 0 0 0
2729 1 2.7726057079534536 12.209972163375888 9.110118618605313 0 0 0
2296 1 4.295514096122103 11.372374408138835 8.481611263598587 0 0 0
2335 1 5.035767184035171 12.08167004455073 8.195460416981525 0 0 0
2694 1 5.085563239234312 11.29728119543682 9.088729931128825 0 0 0
2733 1 4.480662709761623 12.199431482440218 9.096300723132085 0 0 0
2300 1 5.949410661159161 11.29707402381926 8.19401478242052 0 0 0
2737 1 5.790047470762376 12.057319904127741 8.871920060443482 0 0 0
2698 1 6.702787676786898 11.334146850537856 8.994311281358353 0 0 0
2339 1 6.633855197695295 12.207291214394633 8.109718516666696 0 0 0
2304 1 7.459776781134342 11.518437364950984 8.180901861729218 0 0 0
2741 1 7.44998901385637 12.096600246237863 9.039569985421064 0 0 0
2308 1 8.896721267983406 11.418120091399825 8.348871351888398 0 0 0
2702 1 8.205252068273452 11.395211379113892 9.067029686876584 0 0 0
2343 1 8.2270943304039 12.148549585833276 8.217135753904252 0 0 0
2745 1 9.123103656916527 12.035125055825471 9.099623336987765 0 0 0
2347 1 9.781408613669786 11.98266893637032 8.265518913269268 0 0 0
2706 1 9.812517237055921 11.346031807818296 9.17125083870376 0 0 0
2749 1 10.590524965050523 11.999748373712887 9.004122512441967 0 0 0
2351 1 11.337702879709678 12.170527538582796 8.20622873780244 0 0 0
2316 1 12.204610834423612 11.38288669895157 8.274164815394567 0 0 0
2753 1 12.12528587995375 12.072283278246438 8.987056611197183 0 0 0
2710 1 11.43744294511211 11.43371723454284 9.099623139013868 0 0 0
2355 1 13.061840243087602 12.104507542369998 8.130102572574913 0 0 0
2714 1 12.927307777295159 11.314559935693627 8.94362318049167 0 0 0
2757 1 13.644292340332214 12.062123811584467 8.918729174673654 0 0 0
2721 1 15.218362136172079 12.167348835375595 8.841648473269384 -1 0 0
2284 1 -0.27294195711082136 11.350281762920588 8.188478823599759 0 0 0
2718 1 14.37324210625264 11.385117062258171 9.084922733912183 0 0 0
2324 1 15.227621662720718 13.006134670263908 8.061886425551528 -1 0 0
2363 1 0.3941431348209141 13.802663710423587 8.29211163470119 0 0 0
2722 1 0.43019284345228237 12.899948195620478 8.9792931423267 0 0 0
2328 1 1.1145416246110855 12.92276527925311 8.188321348751217 0 0 0
2367 1 2.067710237369604 13.633632482674056 8.056584771209927 0 0 0
2765 1 1.1544205230229077 13.679772964582728 8.976773618258104 0 0 0
2726 1 2.03034219199681 12.898633939352742 8.96602141428636 0 0 0
2371 1 3.612520387546628 13.614617684542615 8.196079155559957 0 0 0
2332 1 2.885137682276958 12.871534266346853 8.140214388303054 0 0 0
2730 1 3.570669791690934 12.966150811000908 9.048158868143176 0 0 0
2769 1 2.839285592815059 13.761495649204903 8.843125102481928 0 0 0
2336 1 4.410292104418548 12.93327901879048 8.248105633475742 0 0 0
2375 1 5.089563829925929 13.706863261403512 8.321918353031911 0 0 0
2734 1 5.200466906860625 12.897431346469716 8.978509301319537 0 0 0
2773 1 4.375537613412899 13.673044850215685 9.036260561964436 0 0 0
2340 1 5.820849544856676 12.865589791827539 8.180595123978598 0 0 0
2777 1 5.919105444931274 13.556805268031251 9.017008731553577 0 0 0
2379 1 6.860509321982776 13.616082177107351 8.255981710963535 0 0 0
2738 1 6.652522211211654 12.737990220124555 9.015707233271094 0 0 0
2344 1 7.53216984232529 12.915874854829429 8.441350713555128 0 0 0
2781 1 7.577231138329764 13.656054170569394 9.064373718530675 0 0 0
2348 1 9.01309659497959 12.914903028857562 8.148726014468306 0 0 0
2742 1 8.445607938350282 12.90478233489483 9.091434034469735 0 0 0
2785 1 9.072109804972033 13.744711492319006 8.996850304652472 0 0 0
2352 1 10.620568873609894 12.916657009394708 8.221122108353544 0 0 0
2746 1 9.818382908340897 12.76509077065742 8.92392214163841 0 0 0
2789 1 10.611115742632514 13.664704043454694 9.043045164373627 0 0 0
2387 1 9.840212984345708 13.664855179538883 8.163287040233786 0 0 0
2391 1 11.476058859318893 13.6193877230988 8.151851821780333 0 0 0
2356 1 12.157407089505782 12.876356144204877 8.326839261578002 0 0 0
2750 1 11.302770288846556 12.821630330681735 9.041236496387707 0 0 0
2793 1 12.070341564594472 13.669707103987172 8.931229351693542 0 0 0
2754 1 12.940694711834777 12.745636243873783 9.03680128531468 0 0 0
2797 1 13.590887971003497 13.611622426537838 9.039774959863088 0 0 0
2399 1 14.33585417947626 13.818036137975195 8.168512052574329 0 0 0
2761 1 15.186209131938341 13.709399605496777 8.95870955950371 -1 0 0
2758 1 14.486203650486647 12.99321561810482 8.808350566632132 0 0 0
2762 1 0.3974749903386693 14.452120754226424 9.043203238611593 0 0 0
2405 1 1.2470740975908676 -0.2766939092789742 8.848488398636302 0 0 0
2766 1 1.9349535990508109 14.309208706483858 8.978145801643539 0 0 0
2011 1 3.5624499297314456 -0.2407837538332742 8.31264618046907 0 0 0
2372 1 2.8194126618139053 14.505015699080186 8.110283121836577 0 0 0
2770 1 3.573252595235475 14.353508812728826 8.936997309844795 0 0 0
2015 1 5.126423077526461 15.228882538563145 8.24301267837777 0 -1 0
2413 1 4.500892320772132 -0.29075987548612237 9.019798053213844 0 0 0
2376 1 4.385660282231487 14.576739118782736 8.346396881938542 0 0 0
2774 1 5.2076637392387015 14.45437429697321 9.063886319268395 0 0 0
2380 1 5.9824985525955965 14.341983498895146 8.375111282145255 0 0 0
2778 1 6.830725549549765 14.526499696295765 9.049503300954655 0 0 0
2421 1 7.6235380937678485 -0.29409543865925813 9.111617062188255 0 0 0
2384 1 7.44344084380745 14.414737463538362 8.228038147035292 0 0 0
2023 1 8.233631797271826 15.241558274446888 8.158321724838856 0 -1 0
2388 1 9.066891896927206 14.446250851765253 8.223456411840537 0 0 0
2782 1 8.304338367775426 14.347015089881083 9.009550735742497 0 0 0
2429 1 10.613923490281394 15.184899012687392 9.018166459632198 0 -1 0
2786 1 9.852038458750823 14.473668165857966 9.03484443754786 0 0 0
2396 1 12.21545248953338 14.493994446828673 8.20550001023874 0 0 0
2031 1 11.374913398511296 15.117840863513472 8.267311284473685 0 -1 0
2433 1 12.161433374978554 15.209272664091777 8.893419551942547 0 -1 0
2790 1 11.326356037340041 14.376635078741398 9.07762355692222 0 0 0
2400 1 13.664198566824144 14.576056486819716 8.101416741424707 0 0 0
2794 1 12.985717928460073 14.477273306547215 8.950484011741658 0 0 0
2798 1 14.335254038117846 14.41878363227086 9.013160905775983 0 0 0
2802 1 0.40276198508805183 0.5368295454015019 10.486395293223431 0 0 0
2403 1 0.4116145181760493 -0.27675528440165603 9.693496871476462 0 0 0
2404 1 15.132215061820695 0.5038121591826928 9.720372627990269 -1 0 0
2801 1 15.104012233223685 15.179952589275992 10.509836453851463 -1 -1 0
2408 1 1.134357436573684 0.5362081583517204 9.644575459169392 0 0 0
2806 1 2.042845607998579 0.4868120642399667 10.475241301446708 0 0 0
2412 1 2.7785154274292876 0.48760827008435925 9.743871499562996 0 0 0
2810 1 3.4741572727041063 0.5899682874481095 10.597338085782983 0 0 0
2809 1 2.844056011703082 -0.29565629819713685 10.40466671789769 0 0 0
2416 1 4.526951474927363 0.5051721671101032 9.734879824100943 0 0 0
2814 1 5.184959123416573 0.5639148186088278 10.54407325817272 0 0 0
2415 1 5.290749446537067 -0.2759457755819916 9.750844390124549 0 0 0
2813 1 4.403209494335151 -0.20413400172600793 10.457982864620497 0 0 0
2420 1 5.991170497536895 0.6117987412724444 9.742846132326328 0 0 0
2818 1 6.912163743172404 0.42734658817771465 10.489110193218806 0 0 0
2817 1 6.042546132154803 -0.2658343026262485 10.560828224224814 0 0 0
2419 1 6.801551903995092 -0.2619906224745515 9.775568934089907 0 0 0
2424 1 7.543053248430537 0.48348279910168535 9.804887690625232 0 0 0
2821 1 7.4604563431143385 15.212463207428993 10.539306665554843 0 -1 0
2822 1 8.23279564573593 0.48487877335485197 10.531534069831746 0 0 0
2428 1 9.015501040568846 0.41388809581283104 9.733554702041705 0 0 0
2825 1 9.049137073917453 15.169570575361249 10.64162102597216 0 -1 0
2432 1 10.600967672247478 0.43222663537209305 9.884800294291228 0 0 0
2826 1 9.874203934134204 0.4123250102773588 10.712150474724645 0 0 0
2427 1 9.873676104761103 15.077636832853393 9.794519990415619 0 -1 0
2829 1 10.702174320350021 -0.30613453687622005 10.596926297957747 0 0 0
2830 1 11.424252493164495 0.5589835991008041 10.625237686263315 0 0 0
2436 1 12.077844855372604 0.5037402405127918 9.726396355244852 0 0 0
2834 1 12.881392944483807 0.4838359629792913 10.55558840733563 0 0 0
2440 1 13.732174930968984 0.4808405181244234 9.729116372579885 0 0 0
2837 1 13.713482881656532 -0.27128439869428916 10.580147457455368 0 0 0
2838 1 14.45572016736174 0.5188179799332633 10.66300797052127 0 0 0
2439 1 14.47775547628018 -0.27669669275905906 9.752080364685249 0 0 0
2443 1 0.44245220958592146 1.3655622666893545 9.733589758564506 0 0 0
2842 1 0.37568430559575805 2.025964803277151 10.50256229335859 0 0 0
2845 1 1.2099571613470832 1.3303373126035276 10.48344892914518 0 0 0
2447 1 2.00665484468187 1.2182550776745347 9.787831202747306 0 0 0
2448 1 1.2514431177290195 2.0469030773920243 9.702228525563687 0 0 0
2846 1 1.8878693235165245 2.005680503255816 10.489472067190754 0 0 0
2451 1 3.512088407108395 1.236620241901835 9.779298562765184 0 0 0
2849 1 2.7172351258518903 1.2695826306837863 10.496309802651329 0 0 0
2452 1 2.703482933293143 2.0260611825124055 9.81030980982181 0 0 0
2850 1 3.611637297352722 1.8233124625671246 10.578921964802337 0 0 0
2455 1 5.168077743031138 1.2166384137538595 9.78836916381039 0 0 0
2853 1 4.34412157212479 1.2603964737616067 10.50383594252412 0 0 0
2456 1 4.217432078582251 2.038176141522007 9.790936061078945 0 0 0
2854 1 5.029858430395441 1.9620525913599676 10.48959166465228 0 0 0
2857 1 6.093179373318289 1.3055209688447784 10.479846779677136 0 0 0
2460 1 5.9001527229021855 2.019403374103956 9.644930391364124 0 0 0
2459 1 6.794379714895187 1.405763146864112 9.756648405009553 0 0 0
2858 1 6.733142351048082 2.0649302140675543 10.477470885858729 0 0 0
2861 1 7.513828367130303 1.242307371570322 10.54053648740242 0 0 0
2464 1 7.586753338905951 2.0147295688612905 9.67688285922808 0 0 0
2463 1 8.313257753811374 1.1653672758177458 9.774156113643798 0 0 0
2862 1 8.249440606217156 2.030818130685968 10.462010912608616 0 0 0
2865 1 9.085990749355936 1.2344161522892547 10.508217813678947 0 0 0
2468 1 9.082349787346715 1.993621156719029 9.86636179623801 0 0 0
2467 1 9.835092599720532 1.1923579627379821 9.879415389974394 0 0 0
2869 1 10.638509471110982 1.2903288035401397 10.604387315013657 0 0 0
2866 1 9.82782026093523 2.0556281034284067 10.672316670632409 0 0 0
2472 1 10.484788793777593 2.0643186897350803 9.823137558301568 0 0 0
2471 1 11.374180750756377 1.3674013311815956 9.808859813951887 0 0 0
2873 1 12.189860379154801 1.3361257889402154 10.624797961571193 0 0 0
2870 1 11.336303547679456 2.0234972946884677 10.579609701214121 0 0 0
2476 1 12.018103044852879 2.0720878471237745 9.7820280732737 0 0 0
2475 1 12.742938873011916 1.3018620218525385 9.73518377691244 0 0 0
2877 1 13.721011565171086 1.229192671322353 10.664592641119945 0 0 0
2874 1 12.8600894757456 2.0831017047871434 10.684889140177827 0 0 0
2480 1 13.724487552869594 2.0081988365142083 9.858297074246398 0 0 0
2841 1 15.159936222172405 1.1618750892344558 10.499531716739892 -1 0 0
2444 1 15.14358506065161 1.9533040769850705 9.758127748094054 -1 0 0
2479 1 14.342843452733682 1.2459138646021344 9.75252178308493 0 0 0
2878 1 14.46996673595407 2.057804095413913 10.619244352637882 0 0 0
2483 1 0.39446383799484586 2.785862518773732 9.693606378130099 0 0 0
2882 1 0.44256568493350834 3.634258044014149 10.549862303594516 0 0 0
2484 1 15.226152456067815 3.6749786897046057 9.78665650786375 -1 0 0
2881 1 -0.18457532448061773 2.884463669064341 10.556695840356173 0 0 0
2885 1 1.1053826067414827 2.801318035476785 10.571356884401993 0 0 0
2488 1 1.1872632341832954 3.647488438458778 9.853973690409173 0 0 0
2487 1 1.9599832912668522 2.878247433870601 9.922973512218128 0 0 0
2886 1 1.9707190651184954 3.616407158407357 10.567492116663615 0 0 0
2889 1 2.787607490301933 2.8835423378489278 10.583714384592525 0 0 0
2491 1 3.6397059441477095 2.8002773092359154 9.891186335882768 0 0 0
2492 1 2.735271313749644 3.720544585051595 9.936665465191389 0 0 0
2890 1 3.5822780959807763 3.614396979597762 10.690470992769477 0 0 0
2495 1 4.958636290997187 2.8501345778028058 9.780930538656932 0 0 0
2496 1 4.401642098204447 3.6608794868130614 9.898364361480716 0 0 0
2893 1 4.311653139434779 2.787133012294148 10.70710082777245 0 0 0
2894 1 5.24434853488611 3.632674877589325 10.55409788722362 0 0 0
2500 1 5.947520856074259 3.5747604052407476 9.797341135246338 0 0 0
2897 1 5.918953256731883 2.7772119884648467 10.49343495933994 0 0 0
2898 1 6.781582084976484 3.503742711134674 10.51956747095501 0 0 0
2499 1 6.825887343426933 2.8512825711503766 9.764096348912002 0 0 0
2504 1 7.566029734872695 3.6122053147730746 9.733704446537104 0 0 0
2901 1 7.620652566808568 2.8342864753839025 10.509152027261006 0 0 0
2503 1 8.320165341833935 2.8749075292932535 9.745569393994614 0 0 0
2902 1 8.358042126901182 3.585759570942148 10.58155043342861 0 0 0
2508 1 9.039047666039888 3.522804676582178 9.909844719450156 0 0 0
2905 1 9.084553466055524 2.7552335952846665 10.686820191245808 0 0 0
2906 1 9.79739015832233 3.543299416406229 10.746088233843128 0 0 0
2507 1 9.788754384141512 2.7649646238641017 9.835819930558472 0 0 0
2512 1 10.435758577719461 3.6264424343387205 9.83808727082518 0 0 0
2909 1 10.512946753710754 2.8344737948067604 10.657161658292484 0 0 0
2511 1 11.232110905539038 2.809788152744123 9.79433947210078 0 0 0
2910 1 11.210192347737951 3.5762844851273314 10.601431776283505 0 0 0
2516 1 12.085944813971004 3.5117837249098742 9.841977449991408 0 0 0
2913 1 12.058369176513896 2.7929968698679533 10.585476415174451 0 0 0
2515 1 12.916351330483806 2.6371051705129043 9.706495970202127 0 0 0
2914 1 12.863369909617322 3.4537319391778407 10.469819328176499 0 0 0
2917 1 13.738127856636922 2.788207711843008 10.599291769132115 0 0 0
2520 1 13.76979744325562 3.5970834655411226 9.74831936468501 0 0 0
2519 1 14.313566402855724 2.776473265210558 9.747784607432042 0 0 0
2918 1 14.56688269732389 3.4921372157442114 10.483962471862522 0 0 0
2523 1 0.4724833570781515 4.491392902811433 9.856578708684143 0 0 0
2922 1 0.4594026281058615 5.2168403017387766 10.667963458904659 0 0 0
2524 1 -0.2994622301162053 5.098482205417257 9.736427206376181 0 0 0
2925 1 1.253366664887613 4.455102942617557 10.660074503967888 0 0 0
2527 1 1.9140844124132745 4.495244280061446 9.936234500785421 0 0 0
2528 1 1.1805552551580563 5.226207146829693 9.811151864376924 0 0 0
2926 1 2.109276331309336 5.118762306460313 10.653465262918424 0 0 0
2929 1 2.935786775621747 4.4222134345574196 10.698641763314107 0 0 0
2531 1 3.542739014345567 4.41377147931701 9.824194492678853 0 0 0
2532 1 2.7870898176985297 5.157484380239392 9.840085220034503 0 0 0
2930 1 3.5983072254324573 5.146629410751365 10.771151136053057 0 0 0
2535 1 5.109218281163828 4.434219616537946 9.898474578249044 0 0 0
2536 1 4.30343751209188 5.1079927901118385 9.93778099265144 0 0 0
2934 1 5.145406084679989 5.133312675721806 10.723370778300417 0 0 0
2933 1 4.364742779026464 4.277112389616728 10.670094118528489 0 0 0
2937 1 5.902684452131211 4.378266839926797 10.655864005321874 0 0 0
2540 1 5.980429572329246 5.131566100775377 9.9446318182931 0 0 0
2938 1 6.7147008027878545 5.160234180090097 10.686385013248355 0 0 0
2539 1 6.760869985381338 4.435229789104381 9.870937955812163 0 0 0
2544 1 7.569010026733917 5.144265518994146 9.809747118704042 0 0 0
2941 1 7.599543783292138 4.265508585290556 10.579730107664204 0 0 0
2543 1 8.350679459521565 4.39225600044046 9.804483447686792 0 0 0
2548 1 8.945161712512036 5.156373806307835 9.784381966751887 0 0 0
2942 1 8.282837547006025 5.183152648483245 10.543825658152187 0 0 0
2945 1 9.08594410193438 4.353453937069962 10.646247987384367 0 0 0
2547 1 9.680310260256945 4.334520826624059 9.881461830539031 0 0 0
2949 1 10.525847234938897 4.3400318589584215 10.656454515748177 0 0 0
2552 1 10.676500016393845 5.220483763626329 9.753374153794752 0 0 0
2946 1 9.912855555863484 5.135044732836218 10.433713704368824 0 0 0
2551 1 11.401098658272922 4.3569717024768 9.871465129026344 0 0 0
2556 1 12.083086525492583 5.191777278496349 9.90448692721326 0 0 0
2953 1 12.212128543682045 4.295286337112957 10.552486247075759 0 0 0
2950 1 11.346408729822855 5.192828590316855 10.5884381458545 0 0 0
2555 1 13.069736600758056 4.34044122634708 9.924751016423361 0 0 0
2954 1 12.973185999879863 5.178336910691396 10.551067297123648 0 0 0
2957 1 13.810710059723416 4.2128368856455305 10.703711108225008 0 0 0
2560 1 13.743058249171508 5.141714817610249 9.862677649463219 0 0 0
2921 1 15.197751429454854 4.408596388439513 10.670333232043681 -1 0 0
2559 1 14.434553440617965 4.492887952556415 9.910791480385683 0 0 0
2958 1 14.553616223944715 5.207155462219208 10.608977298646394 0 0 0
2563 1 0.48976841575316754 5.962707324696654 9.801755242089431 0 0 0
2961 1 15.24769241077399 5.871712007954392 10.601550147890059 -1 0 0
2962 1 0.4770687092721766 6.725021518698655 10.636985731281378 0 0 0
2965 1 1.2657297613526424 5.843525432037072 10.68268159026405 0 0 0
2567 1 2.0143421083350233 5.992669505285761 9.912281376804405 0 0 0
2966 1 2.059530390185833 6.663258998834341 10.607843977358478 0 0 0
2969 1 2.902720581083683 5.98290065377747 10.671413725243116 0 0 0
2571 1 3.5911058130986184 5.805672694581723 9.913524013322466 0 0 0
2970 1 3.6106436839772305 6.706536876059413 10.485429917938657 0 0 0
2572 1 2.889007649910879 6.632286054033839 9.840637240286014 0 0 0
2973 1 4.344460572858857 5.918500227460652 10.658580527783975 0 0 0
2575 1 5.1486277017269275 5.812243021138023 9.934053307565321 0 0 0
2576 1 4.346079174070642 6.56320843524988 9.722798109058846 0 0 0
2974 1 5.103945375410131 6.634996365384976 10.537565690666977 0 0 0
2977 1 5.951909187325919 5.8946768027268 10.602281202132644 0 0 0
2579 1 6.678084913499733 5.847258040132251 9.763792632258244 0 0 0
2978 1 6.652607505196534 6.725168257685924 10.572688796405515 0 0 0
2580 1 5.911958185576985 6.61481796540911 9.818990913356817 0 0 0
2584 1 7.547573333368305 6.74987335088327 9.849203190806634 0 0 0
2981 1 7.537885332174877 6.006912797839607 10.528702278529856 0 0 0
2583 1 8.251912946290688 5.960184950125555 9.818406155984999 0 0 0
2982 1 8.270584944251688 6.71100657636152 10.550084444243907 0 0 0
2985 1 9.01872839235389 5.858625367298115 10.594136141787558 0 0 0
2588 1 9.062522309288774 6.768689035456988 9.731175867113556 0 0 0
2587 1 9.779670044446632 6.039274515425276 9.909272768657992 0 0 0
2989 1 10.60364494089798 5.9062293950898175 10.535213652812217 0 0 0
2591 1 11.29971679893901 6.02462073202064 9.837718830796891 0 0 0
2993 1 12.132006613870324 6.040180273516047 10.578312729317936 0 0 0
2596 1 12.173365616321547 6.574770285307197 9.72097452841684 0 0 0
2595 1 13.04907858173581 5.839936376264714 9.836572887260626 0 0 0
2997 1 13.781115282667198 5.9582980632509 10.69093236353639 0 0 0
2994 1 12.985572573860686 6.665448021127313 10.54925132784269 0 0 0
2599 1 14.49073192767592 5.854328738320135 9.835302213609307 0 0 0
2998 1 14.563424721439961 6.597059281522993 10.636459257625575 0 0 0
2564 1 15.155020535839096 6.6517978472876305 9.802169041159921 -1 0 0
2603 1 0.3827218865954861 7.359394664456012 9.913660913338688 0 0 0
3001 1 15.205797780118687 7.498837535116392 10.647385275249377 -1 0 0
2568 1 1.3074853157572572 6.671059744785605 9.780938724303404 0 0 0
3005 1 1.2791957015957256 7.4314636902685125 10.628453809120977 0 0 0
2607 1 2.0348176510797717 7.432184839760583 9.864151027663976 0 0 0
3006 1 1.9948361074757002 8.24951704914642 10.589848536830274 0 0 0
3009 1 2.7673932402056156 7.414991789597003 10.480461670181615 0 0 0
2611 1 3.583366500547707 7.526457321646513 9.864792926939462 0 0 0
2612 1 2.766637357998728 8.370257591811722 9.871083532584105 0 0 0
3013 1 4.349588030063497 7.493168530554846 10.559215155429193 0 0 0
2615 1 5.119109293387517 7.394977390912492 9.752961896016583 0 0 0
2616 1 4.384756636103602 8.258871428843914 9.771567840256242 0 0 0
3014 1 5.115791634717795 8.302809839074921 10.635174511293648 0 0 0
3017 1 5.861246916814498 7.384748863481017 10.596782462021757 0 0 0
2619 1 6.7620788830317 7.457732737585403 9.887928935425226 0 0 0
3021 1 7.506849825912573 7.408776339069655 10.662007513199942 0 0 0
2623 1 8.249721635852872 7.510410270742942 9.810707508420155 0 0 0
3025 1 8.988750959189723 7.374314043558633 10.57962049585943 0 0 0
2986 1 9.76948570014698 6.758345262284291 10.70718538462841 0 0 0
2592 1 10.478550992127452 6.739773040301771 9.804737373304473 0 0 0
2627 1 9.831820971691958 7.578635345463774 9.730108552384227 0 0 0
3029 1 10.584712780062468 7.4554035670023735 10.695258303259973 0 0 0
2990 1 11.29576950994182 6.751219290488067 10.586047110381507 0 0 0
2631 1 11.363949769375363 7.567966407187547 9.782489079143254 0 0 0
3033 1 12.165929908530487 7.364527303371935 10.69721955314932 0 0 0
2600 1 13.69484233404011 6.631140213477618 9.808124571105914 0 0 0
2635 1 12.984418368200696 7.438153997626066 9.77946861320503 0 0 0
3037 1 13.723652135074676 7.448004810500223 10.623137943921307 0 0 0
2639 1 14.462953617790916 7.513151685052786 9.842660699936513 0 0 0
3002 1 0.6258182746158872 8.185770858848592 10.575580210898547 0 0 0
2643 1 0.5079906143506071 8.896208340967682 9.820205381153961 0 0 0
3041 1 -0.2938750316513874 8.976729556607598 10.483980299171087 0 0 0
2604 1 -0.1608826165938138 8.131029015361225 9.845502294522465 0 0 0
2608 1 1.209587238087295 8.096097014093242 9.74196895152355 0 0 0
3045 1 1.3518541578180319 9.001773978472599 10.602150599581762 0 0 0
2647 1 2.024286282524949 9.091432934335241 9.859409025418362 0 0 0
3010 1 3.5888839574995606 8.33101831186379 10.578863793926512 0 0 0
2651 1 3.5798810603797784 9.012108773039149 9.85085063498665 0 0 0
3049 1 2.6716044934676333 9.006559128312087 10.64400491633841 0 0 0
2655 1 5.104040623461087 8.949855178075591 9.810597318276894 0 0 0
3053 1 4.36849680030227 8.971883263607374 10.586760338454123 0 0 0
2620 1 5.87706993974159 8.13312171545228 9.663901683007467 0 0 0
3018 1 6.583225186742392 8.30774793513108 10.396235939384432 0 0 0
3057 1 5.850320201138625 9.069297383642407 10.580046215648256 0 0 0
2659 1 6.550365875586166 9.011392849785945 9.62540421594628 0 0 0
2624 1 7.469977473473536 8.22608421393624 9.82831122937164 0 0 0
3061 1 7.340189716565957 9.055279723013783 10.57354747437478 0 0 0
2663 1 8.225646078452296 8.93263064580026 9.84241261880469 0 0 0
3022 1 8.19689428276886 8.254257667031503 10.608894531727405 0 0 0
2628 1 9.034985629754757 8.27786295511159 9.749261504200415 0 0 0
3065 1 8.960509134373535 9.079075489435489 10.581993013166738 0 0 0
3026 1 9.69343144454563 8.263205430856079 10.632084002088465 0 0 0
2632 1 10.66694400336182 8.23805759391444 9.939740207130676 0 0 0
3069 1 10.560833765783634 9.027719065115868 10.576735391780726 0 0 0
2667 1 9.814274784490973 8.989122598342732 9.8385835043678 0 0 0
3030 1 11.525982018215188 8.168018658350668 10.57605816978344 0 0 0
2636 1 12.197962489400705 8.258565042984287 9.798528055327491 0 0 0
2671 1 11.333653744820982 9.041964063561522 9.852957776602395 0 0 0
3073 1 12.22016399662919 9.051894934848153 10.514603035221722 0 0 0
3034 1 13.061325717810536 8.18639709239985 10.559863385443254 0 0 0
2675 1 13.038793567296864 9.054092084963283 9.848758136919503 0 0 0
3077 1 13.752518502872721 8.996563910204927 10.581599900446516 0 0 0
2640 1 13.74982926836337 8.180741719779856 9.712697149930879 0 0 0
3038 1 14.385357455172091 8.239178412337129 10.608772182270204 0 0 0
2679 1 14.45383675143453 8.92738905886506 9.75209090228033 0 0 0
2683 1 0.4202984751322779 10.650499808064847 9.74982475916455 0 0 0
3042 1 0.5637256141268617 9.738615691759982 10.589491163359401 0 0 0
2644 1 15.226428847748643 9.811376272461303 9.791375053884032 -1 0 0
2648 1 1.2215412798484984 9.877882812329641 9.881069317379552 0 0 0
3085 1 1.242750410992213 10.693420627232424 10.58940452558415 0 0 0
3081 1 -0.26182686470186184 10.55631095272227 10.510942162851318 0 0 0
3046 1 2.048521903414148 9.794509332924818 10.64994103229678 0 0 0
2687 1 2.0864188707048203 10.55339513616337 9.923990961345169 0 0 0
2652 1 2.7353375493160947 9.8591222872634 9.816264792194513 0 0 0
3089 1 2.7758611013176546 10.598608926983829 10.556402670728406 0 0 0
2691 1 3.474275126106416 10.620278590348864 9.792194287451583 0 0 0
3050 1 3.5486325402347836 9.756207896626506 10.607101193348214 0 0 0
2695 1 5.094775409275079 10.498230939122731 9.782259123034269 0 0 0
2656 1 4.342625306493217 9.722169437346945 9.813999245892457 0 0 0
3093 1 4.311908236440079 10.528860442285183 10.487732155096651 0 0 0
3054 1 5.069767059239231 9.697690226892963 10.558407224125279 0 0 0
2660 1 6.021364453718796 9.81208000726657 9.793659635584198 0 0 0
3097 1 5.895849600171459 10.531031005356589 10.496664541118282 0 0 0
3058 1 6.715784997829139 9.807155551666668 10.516440776220016 0 0 0
2699 1 6.696791900014965 10.618963374489603 9.757381955102325 0 0 0
2664 1 7.4636820406146445 9.727454555976102 9.867592601371022 0 0 0
3101 1 7.473737785797797 10.597316324539964 10.525022866831993 0 0 0
3062 1 8.265365348148777 9.95483704883452 10.530359845901685 0 0 0
2703 1 8.151059394027431 10.569313820203806 9.78930004503022 0 0 0
2668 1 9.014927624024029 9.844188350845531 9.8438793981998 0 0 0
3105 1 9.093326856115496 10.64152568763302 10.622919130419668 0 0 0
2672 1 10.613041323577338 9.970064898682676 9.771173744230929 0 0 0
2707 1 9.738001677541355 10.555735755966076 9.820914344284517 0 0 0
3066 1 9.763532936986948 9.812142407499689 10.615776030341163 0 0 0
3109 1 10.615435386464249 10.550970517245027 10.627374209167812 0 0 0
2711 1 11.463220520635463 10.605784733575387 9.84815591258037 0 0 0
2676 1 12.212194313055583 9.833674267010029 9.857629182517893 0 0 0
3070 1 11.406336402658091 9.726110324216041 10.603312094632741 0 0 0
3113 1 12.142310728969992 10.585387227613506 10.658493664572784 0 0 0
2680 1 13.76877293302707 9.756260266556374 9.891799012592685 0 0 0
2715 1 12.948358815608156 10.523882942685958 9.850167425535826 0 0 0
3074 1 13.057071176309815 9.786014153199329 10.632936216563504 0 0 0
3117 1 13.737537735837545 10.677511839619665 10.520452798204701 0 0 0
3078 1 14.458994566275813 9.759805423195534 10.599459525747971 0 0 0
2719 1 14.512605706388861 10.584042797926152 9.722663309446418 0 0 0
2723 1 0.38786720563790744 12.207467789878592 9.81170697342494 0 0 0
3082 1 0.4425164366366299 11.458172303082641 10.437395791205635 0 0 0
2688 1 1.3230352109581973 11.377543965713805 9.79453418079364 0 0 0
3125 1 1.2121154750226442 12.247966979260408 10.557356398107686 0 0 0
3086 1 2.0831058165851073 11.32829538023082 10.674934522371121 0 0 0
2727 1 2.0048531713589566 12.12994107741946 9.808571569814251 0 0 0
2692 1 2.72598562027595 11.393987464695353 9.849042284558383 0 0 0
3129 1 2.72544053255838 12.130676404061205 10.598249073297342 0 0 0
2731 1 3.624216928983598 12.164363942356484 9.708738330367556 0 0 0
3090 1 3.5831643019219914 11.377287939490216 10.581129022491854 0 0 0
2696 1 4.271991672812615 11.371930089096253 9.755576607414291 0 0 0
3094 1 5.18832600514482 11.446272072913 10.563431779999522 0 0 0
3133 1 4.27830780501679 12.217833237489483 10.529712385373724 0 0 0
2735 1 5.210766554092654 12.231668452595258 9.849724361146517 0 0 0
2700 1 5.9000191341156265 11.287227509311215 9.810643641463276 0 0 0
3137 1 5.950367596549169 12.290014953143643 10.612966908369035 0 0 0
3098 1 6.6670306355962685 11.393593562259742 10.64783460666737 0 0 0
2739 1 6.689771533136979 12.129954796869256 9.818622155602203 0 0 0
2704 1 7.393675429478346 11.412485696459019 9.944612410840737 0 0 0
3141 1 7.525717406482695 12.066596304766158 10.72380979728025 0 0 0
2743 1 8.207934953227383 12.10032791619765 9.802302610614387 0 0 0
3102 1 8.210506616048146 11.3286420587063 10.546438037252749 0 0 0
2708 1 9.035102403711857 11.396215640868629 9.925485068190511 0 0 0
3145 1 8.991536433350106 12.18735139476468 10.681528413612249 0 0 0
2747 1 9.801849591710582 12.118524099078972 9.851504229831637 0 0 0
3106 1 9.805498212076635 11.4113773725575 10.548777858557795 0 0 0
2712 1 10.646504135021527 11.147767298122847 9.782162507593284 0 0 0
3149 1 10.594639010053381 12.119545650286362 10.563556777198851 0 0 0
2716 1 12.1553352823741 11.331232940632926 9.868836094858406 0 0 0
3110 1 11.337384353088105 11.432109725238885 10.57620097348346 0 0 0
2751 1 11.282413117485888 12.079922346013792 9.76670902321321 0 0 0
3153 1 12.112425151488416 12.205413901055419 10.622738429250386 0 0 0
2755 1 12.840431862111302 12.046495551727144 9.777347531287887 0 0 0
3114 1 12.91782858993967 11.431413474391142 10.53831294686384 0 0 0
2720 1 13.614474777428882 11.309005981852952 9.769748059029276 0 0 0
3157 1 13.738507023391392 12.0365905285263 10.593550021533314 0 0 0
3121 1 15.1422291742861 12.142109585813557 10.654619401154957 -1 0 0
2684 1 -0.28010073126380386 11.385326494933413 9.727002191182248 0 0 0
2759 1 14.431490917672622 12.037414542761208 9.867469092228848 0 0 0
3118 1 14.549748589963471 11.271000024302399 10.524475196643412 0 0 0
3122 1 0.3797398265410463 12.94004672522438 10.533633872275008 0 0 0
2763 1 0.4030140236984261 13.635824807456288 9.80707120253004 0 0 0
2728 1 1.2161401208223703 12.931225053611985 9.885639135338668 0 0 0
3126 1 1.9859284227005083 12.972975348584797 10.513212492854084 0 0 0
2767 1 1.9207422933653007 13.685514827203896 9.779657981185245 0 0 0
3165 1 1.0729582406647846 13.707449482478783 10.592931320622512 0 0 0
2732 1 2.6882915865172 13.057811453278955 9.764930946964839 0 0 0
3130 1 3.482515348564359 12.865737665778653 10.52443749364182 0 0 0
2771 1 3.6315885724097217 13.717164728407653 9.858486457490823 0 0 0
3169 1 2.7500916026870468 13.771336999642404 10.561659978146235 0 0 0
2736 1 4.400054914655531 12.968337655249659 9.806434351691724 0 0 0
3134 1 5.053107646822772 13.090879094710068 10.638783047755105 0 0 0
3173 1 4.477831548263347 13.840869936028977 10.58263415394445 0 0 0
2775 1 5.091501929067035 13.726927595457834 9.751549608200879 0 0 0
2740 1 6.069559520678785 12.960698724629648 9.87081022147834 0 0 0
3177 1 5.90768045667475 13.79571213829632 10.550952454558512 0 0 0
3138 1 6.643509580537642 13.094512431392484 10.618743058048818 0 0 0
2779 1 6.754222310218259 13.674842968846178 9.612005902880853 0 0 0
2744 1 7.376995570826142 12.849048462737453 9.785231462477686 0 0 0
3181 1 7.440813255348526 13.779455846057349 10.585919161585895 0 0 0
2783 1 8.207416198893625 13.605912647282118 9.884773984537041 0 0 0
3142 1 8.233736530597486 12.91215709218029 10.592765762350275 0 0 0
2748 1 9.046263824151808 12.837382925753584 9.942769847198406 0 0 0
3185 1 9.025569008195117 13.664133857223703 10.522802952188758 0 0 0
2787 1 9.881236920876614 13.673878588691814 9.745341988700098 0 0 0
2752 1 10.500243429488979 12.891758661558722 9.684263022369183 0 0 0
3146 1 9.907440827197131 12.809588749999364 10.615847711773363 0 0 0
3189 1 10.585266619513526 13.605194756700097 10.494924277147437 0 0 0
3150 1 11.286487967553033 12.863109201638714 10.538353647490496 0 0 0
2756 1 12.08481550379323 12.877561393654151 9.626639263971487 0 0 0
2791 1 11.47865441003005 13.711933480541962 9.837163667840592 0 0 0
3193 1 12.19376521419046 13.575890707971418 10.642000560792649 0 0 0
3154 1 12.866682341122765 12.825655062835626 10.495847585985686 0 0 0
2795 1 12.902578351041885 13.72973126259415 9.80369311424776 0 0 0
2760 1 13.689260934535262 12.758012802500627 9.807620578129995 0 0 0
3197 1 13.645994689298924 13.718312328365972 10.57084787958507 0 0 0
3161 1 15.223840208609943 13.741133332351016 10.60474295334286 -1 0 0
2724 1 15.150617306449647 12.866404292941542 9.631506567088618 -1 0 0
3158 1 14.553811683758532 12.946369163096168 10.614044674428783 0 0 0
2799 1 14.247402554695089 13.65456518177746 9.759960512688497 0 0 0
3162 1 0.4480703385003493 14.495322667005656 10.557810436278341 0 0 0
2764 1 15.139508206189198 14.43116311458002 9.794591606934262 -1 0 0
2407 1 1.9217689261583262 15.231653384029997 9.68719339797094 0 -1 0
2805 1 1.2532505141099275 -0.2673207604110265 10.354285624782609 0 0 0
2768 1 1.2176655191581727 14.472075837466182 9.647607506424237 0 0 0
3166 1 1.9140485788280928 14.526843869476004 10.483199593207456 0 0 0
2411 1 3.688944609259467 -0.28461137991943364 9.707354502596491 0 0 0
2772 1 2.7877252723638124 14.39348246766518 9.682180241561479 0 0 0
3170 1 3.6156455925542175 14.513974543116337 10.44498217943158 0 0 0
2776 1 4.348531162093049 14.464996693577088 9.733970584712598 0 0 0
3174 1 5.270740392763449 14.532726205415667 10.4890987408852 0 0 0
2780 1 5.9694380424357725 14.443377525175805 9.74333866304131 0 0 0
3178 1 6.7324015750278985 14.470609943568842 10.591396704771554 0 0 0
2784 1 7.52811807307052 14.485928754694239 9.823679226070013 0 0 0
2423 1 8.314172687881364 15.251119711431699 9.876984109220945 0 -1 0
3182 1 8.241320309006706 14.431864409373183 10.640754203130456 0 0 0
2788 1 9.018245547260268 14.476812428725566 9.88687405204552 0 0 0
2792 1 10.622017592440141 14.486851796370619 9.853758636300814 0 0 0
3186 1 9.82735133058484 14.418592619496401 10.582920987452162 0 0 0
2431 1 11.473407998417517 -0.29842537185844975 9.791955869952325 0 0 0
2833 1 12.113808113395006 -0.2552624978708386 10.522834883051342 0 0 0
2796 1 12.226040398005129 14.453846074279518 9.703156519412644 0 0 0
3190 1 11.4091969309458 14.459694309431832 10.540351780143425 0 0 0
2435 1 12.926616844152669 15.210449368751789 9.770205224325128 0 -1 0
3194 1 12.939288473787435 14.577372498376793 10.577633911500659 0 0 0
2800 1 13.71524643372771 14.577648102021584 9.749874597322137 0 0 0
3198 1 14.394547665272029 14.496594073172762 10.663733576850202 0 0 0
3202 1 0.3452111702456022 0.5043851225065284 12.090232706567924 0 0 0
3201 1 15.202343063821868 -0.31214123811084477 12.236171710299434 -1 0 0
2808 1 1.1222120861179772 0.5905548813695171 11.318378687223326 0 0 0
2803 1 0.24393016215833807 15.220204913332442 11.31983370439323 0 -1 0
3206 1 1.861522790553447 0.4606420415984831 11.98174375893458 0 0 0
3205 1 1.1443456038612514 -0.29394291367969283 12.001910181865437 0 0 0
2807 1 2.004129352970194 -0.25071050772011305 11.105218937376701 0 0 0
2812 1 2.711361183751767 0.47429581415047595 11.332249612186715 0 0 0
3210 1 3.6728099833742136 0.517062954538939 12.05896001251704 0 0 0
2811 1 3.471768422619166 -0.2187720450706588 11.320920838298058 0 0 0
3209 1 2.8210889511540143 15.22699073854315 12.161907650227985 0 -1 0
2816 1 4.290507718725893 0.5680791442758404 11.247001493937493 0 0 0
3214 1 5.299988165482602 0.488095234918863 11.934266430478061 0 0 0
3213 1 4.31091431354142 -0.24044424135774106 12.013827727277473 0 0 0
2815 1 5.129430446474254 15.249782088691742 11.310712999648544 0 -1 0
2820 1 6.029104455707987 0.4464281194426557 11.21131386107253 0 0 0
3218 1 6.768522641091926 0.5256445810840781 12.108201696932174 0 0 0
3217 1 5.981953339215485 -0.29598910171080905 12.233104843924025 0 0 0
2824 1 7.462707003024011 0.5617816825557065 11.360836633707677 0 0 0
3221 1 7.527566212947089 15.155595584970264 12.132189629898633 0 -1 0
3222 1 8.169718069862906 0.36896734890848626 12.117268389674756 0 0 0
2828 1 8.924084159992244 0.6274498341960707 11.307158608036541 0 0 0
2823 1 8.195241253383045 15.233225430156374 11.337044886797514 0 -1 0
3226 1 9.795725210464084 0.5343570993887385 12.200896273517007 0 0 0
2832 1 10.731064223420788 0.4104503445946155 11.331441070515229 0 0 0
2827 1 9.867357672219967 15.173617303307616 11.358762913736332 0 -1 0
3229 1 10.638189944141761 -0.20718665171338363 12.197162980600876 0 0 0
3230 1 11.457468403387637 0.47638047675189366 12.097558079036677 0 0 0
2836 1 12.116899114116286 0.49504735653752296 11.27290629614992 0 0 0
3234 1 12.916581653292514 0.5999710080422026 12.17123143973891 0 0 0
2840 1 13.723397922634572 0.5384644590377341 11.38948891190557 0 0 0
2804 1 15.18270124869576 0.4764202352661032 11.381009998983462 -1 0 0
3238 1 14.452931219514735 0.4727795617139876 12.109255044706224 0 0 0
2839 1 14.515733153229654 15.224517157567014 11.407103169261607 0 -1 0
2843 1 0.40880371748406896 1.3177899067204017 11.297530730581396 0 0 0
3242 1 0.327570098204078 1.9786643383169737 12.128404269814165 0 0 0
2844 1 -0.2844307584598437 2.0621072684939104 11.347439757755254 0 0 0
3241 1 15.11833909183348 1.1884260117293715 12.212127125540253 -1 0 0
3245 1 1.1754590735372443 1.3273060746337937 12.012959953826634 0 0 0
2847 1 1.8783179920217492 1.328297104357917 11.286546408121378 0 0 0
2848 1 1.0923978918465964 2.0956367050313043 11.274098339225038 0 0 0
3246 1 1.997320360316854 1.9941071169532765 12.071425845626393 0 0 0
2851 1 3.509911617217472 1.3141680465003514 11.440823694509579 0 0 0
3249 1 2.599040847177239 1.1617104380263121 12.122365189388344 0 0 0
2852 1 2.717913979900018 2.0072037946317476 11.412013037043348 0 0 0
3250 1 3.3952705492941226 1.9174551678803526 12.170745123132328 0 0 0
3253 1 4.343116808216251 1.2226460947551239 12.110743674439245 0 0 0
2855 1 5.167152880193735 1.2568989495394642 11.255620045161294 0 0 0
2856 1 4.36728822466692 1.908413068879244 11.320587189354768 0 0 0
3254 1 5.120790409384657 1.952068718624588 12.067787582709236 0 0 0
3257 1 6.041368862400778 1.273569538882639 12.037124459255377 0 0 0
2860 1 5.904715679280743 2.025269649453895 11.34393395146003 0 0 0
2859 1 6.711627840380959 1.2421706713786986 11.287228763983865 0 0 0
3258 1 6.797401128767534 2.035571648034206 12.018960611479052 0 0 0
3261 1 7.612491764126948 1.3736146883295386 12.091059841228077 0 0 0
2864 1 7.5973552372075295 2.012081648822543 11.24052862966494 0 0 0
2863 1 8.280437651339788 1.3469135139438735 11.196893763650955 0 0 0
3262 1 8.308097494182736 2.0956425654374513 12.091106777481045 0 0 0
3265 1 8.98404222824298 1.2591832945552994 12.273598003275584 0 0 0
2868 1 9.051013686261765 1.9661289435512832 11.359169105986862 0 0 0
2867 1 9.911630865296118 1.2665162390898554 11.425388440715615 0 0 0
3266 1 9.7053308349584 2.0321188494099047 12.211453795484399 0 0 0
3269 1 10.616406332194018 1.2481692258749848 12.109043392080778 0 0 0
2872 1 10.680147402784126 2.0431104545468597 11.30304383572479 0 0 0
3273 1 12.155633671485301 1.2766557284290934 12.16219942321797 0 0 0
2871 1 11.423085173364257 1.2020604156735397 11.387764971455788 0 0 0
2876 1 12.109736379541165 2.109350364807301 11.386398267134393 0 0 0
3270 1 11.336872863045716 2.0265583800103513 12.09683859053563 0 0 0
2875 1 12.905139832812132 1.228836980677318 11.330864808902248 0 0 0
3274 1 12.897273961474351 2.022293847261864 12.122982730357663 0 0 0
3277 1 13.688672849527745 1.2880319334784045 12.263130217915588 0 0 0
2880 1 13.634656649485702 2.0031983130487596 11.34294812047693 0 0 0
2879 1 14.499623529740248 1.2852781210366027 11.411475691992493 0 0 0
3278 1 14.471338892258728 1.9868900610445683 12.176913719397042 0 0 0
2883 1 0.4208258053212037 2.7796630760687653 11.393763112583656 0 0 0
3282 1 0.5791562958701192 3.5173628168324527 12.274226435961339 0 0 0
3281 1 -0.24043819136443986 2.8163765262414513 12.317814563995647 0 0 0
3285 1 1.182038923599994 2.7658874746894018 12.113154499783981 0 0 0
2888 1 1.1991770769472945 3.6332499249240846 11.349447945383872 0 0 0
2887 1 1.9505693484923214 2.829043342669661 11.22963322481699 0 0 0
3286 1 1.9697668437839106 3.5761744474371935 12.09889913861128 0 0 0
2891 1 3.46316418692015 2.755639385401776 11.3635587593818 0 0 0
2892 1 2.69101754316831 3.620780770314787 11.325898069133299 0 0 0
3289 1 2.6254347442002324 2.798050223406911 12.006608643373436 0 0 0
3290 1 3.591148214298719 3.49527748156733 12.134227714076417 0 0 0
2895 1 5.307793637025052 2.785191184566924 11.32523059896971 0 0 0
3293 1 4.385731499474455 2.6945546057350778 12.049997644635898 0 0 0
2896 1 4.360014967532496 3.5097048758820995 11.383814666853343 0 0 0
3294 1 5.205000982847025 3.4639381078674654 12.067123688131087 0 0 0
3297 1 6.0732535723687295 2.7936094053039406 12.110082401438863 0 0 0
2900 1 5.928077422725319 3.5778662788746325 11.307570967246033 0 0 0
3298 1 6.698010794760981 3.5438990165477384 12.07202746690501 0 0 0
2899 1 6.767720121090611 2.769569390490665 11.260337602303576 0 0 0
2904 1 7.56823520549811 3.515287901366825 11.340031131272177 0 0 0
3301 1 7.494351889918861 2.792503238426244 11.993279846295692 0 0 0
3302 1 8.4041789962582 3.6764906204646093 12.099255943677765 0 0 0
2903 1 8.291296911936794 2.72805767535578 11.284260611659164 0 0 0
3305 1 8.984357675178071 2.7860513135291405 12.212469639674172 0 0 0
2908 1 9.131905061980614 3.661576145816317 11.444332284835838 0 0 0
2907 1 9.732060393823996 2.82032140416193 11.476729375900398 0 0 0
3306 1 9.801071241817432 3.5747894149561343 12.24959893048634 0 0 0
3309 1 10.572149248299347 2.7258618792170033 12.008835373730257 0 0 0
2912 1 10.501687499060207 3.6057647527999923 11.4570372683473 0 0 0
3313 1 12.097189528760179 2.730496657399139 12.172143292824515 0 0 0
2911 1 11.411990508297478 2.897389492749882 11.331888945759061 0 0 0
2916 1 12.210144948034994 3.5400803552194335 11.481952226413622 0 0 0
3310 1 11.387706713281709 3.5509547153650054 12.115776698690354 0 0 0
2915 1 12.944776788529587 2.837915982153972 11.37072846785427 0 0 0
3314 1 13.021134544818874 3.509269707378233 12.260857864811296 0 0 0
2920 1 13.72200583998671 3.6342667006451927 11.51790054479656 0 0 0
3317 1 13.788967590300878 2.7113303541931324 12.122531071503126 0 0 0
2884 1 -0.2660522226629134 3.6341813388618043 11.374541760246057 0 0 0
2919 1 14.486648724128685 2.852541439871721 11.342927628888944 0 0 0
3318 1 14.53920145069613 3.6139929093853533 12.21430126438413 0 0 0
2923 1 0.4777497457641917 4.346577273232529 11.311100876019484 0 0 0
3322 1 0.5199479897864142 5.2456199649363136 12.251633689705496 0 0 0
2924 1 -0.2834301135670426 5.09797315271891 11.395520715648257 0 0 0
3325 1 1.2162760825124606 4.430335187447973 12.085579707061004 0 0 0
2928 1 1.253738552067894 5.152228481064049 11.419701298710383 0 0 0
2927 1 1.9875992326706653 4.303586415424396 11.312766356884765 0 0 0
3326 1 1.9999186166292287 5.065458746031276 12.215908075852287 0 0 0
3329 1 2.845586802304413 4.279505870405826 12.076144911576762 0 0 0
2931 1 3.670367192573446 4.2189896531116835 11.47680553704469 0 0 0
3330 1 3.551855808540288 5.125281254136172 12.063295542921306 0 0 0
2932 1 2.702746165019848 5.102388404658791 11.481737782205524 0 0 0
2935 1 5.093915408899507 4.308791332223424 11.396418040959695 0 0 0
3333 1 4.469320704689221 4.21438839714073 12.15244117138834 0 0 0
3334 1 5.171447614339762 5.159979623523143 12.187879916029782 0 0 0
2936 1 4.396047930904964 5.223367062755418 11.465967103627364 0 0 0
3337 1 5.858946362610699 4.265522009542035 12.109773358140362 0 0 0
2940 1 5.864587238182389 5.062297903595391 11.420055454633708 0 0 0
2939 1 6.702002443575281 4.254980801771658 11.328597547915614 0 0 0
3338 1 6.785842629582672 5.0492162470982995 12.027082544952776 0 0 0
2944 1 7.53243949180206 5.157557528505458 11.270122667178875 0 0 0
3341 1 7.541639125775304 4.3115705962335555 12.186921768154079 0 0 0
2943 1 8.296896081693738 4.43421797993658 11.27633047014206 0 0 0
3342 1 8.273798401672195 5.0854028923353845 12.228461489018986 0 0 0
3345 1 9.184409982665425 4.3957820245394705 12.086151078726957 0 0 0
2948 1 9.11989156546661 5.229096312143508 11.39370319153688 0 0 0
2947 1 9.812823753025285 4.469860319956663 11.362524815983324 0 0 0
3346 1 9.808255799848641 5.201323315263593 12.195966915343568 0 0 0
3349 1 10.647188107193294 4.396459271768098 12.10061883796924 0 0 0
2952 1 10.605962659665291 5.139976549471073 11.385283662812672 0 0 0
2951 1 11.412271296956742 4.353422048789533 11.38616249136929 0 0 0
2956 1 12.190600893296107 5.122032830902183 11.371684772419567 0 0 0
3353 1 12.1917689756057 4.293908353415801 12.14081742434291 0 0 0
3350 1 11.390092507537599 5.136657034364409 12.296538805987097 0 0 0
2955 1 12.966707879614404 4.341300466007413 11.353171947234081 0 0 0
3357 1 13.725650214042751 4.369622379511465 12.176515598986917 0 0 0
3354 1 12.900808447462971 5.025434203113829 12.15333443761891 0 0 0
2960 1 13.865266821702772 5.031533567932131 11.375844102472275 0 0 0
3321 1 -0.1257133146957851 4.325220393303056 12.096259905580748 0 0 0
2959 1 14.556032987382263 4.302568991188519 11.47896535003012 0 0 0
3358 1 14.456203125812163 5.3127221504938085 12.190490257356515 0 0 0
2963 1 0.35285797595917157 5.829519740024852 11.4127361251558 0 0 0
3362 1 0.5666057925606712 6.662338720862246 12.081764314093977 0 0 0
2964 1 -0.22988012949037356 6.6549913446226565 11.325582606153723 0 0 0
3361 1 -0.25158101900160357 5.936795675191026 12.19854193610238 0 0 0
3365 1 1.3023629372840373 5.907738677727307 12.130214352510002 0 0 0
2967 1 2.108412406043438 5.907687743801604 11.393379303085524 0 0 0
2968 1 1.234515974085792 6.590052258839002 11.358623352872613 0 0 0
3366 1 1.9070525169265982 6.709093079472751 12.186929823860517 0 0 0
2971 1 3.644957543373672 6.0026405831141485 11.348668757412959 0 0 0
3369 1 2.8761515656722247 6.01056459577089 12.09606461266981 0 0 0
3370 1 3.5796085703435714 6.707187397662883 12.147642266597497 0 0 0
2972 1 2.797363870827882 6.764468607952 11.427553125980317 0 0 0
3373 1 4.383277530162146 5.939840486474211 12.10284732677339 0 0 0
2975 1 5.13107675097908 5.924964552080374 11.411562645748514 0 0 0
3374 1 5.195198729688973 6.6226293133320935 12.135697597902315 0 0 0
3377 1 6.069836329735029 5.826180569331789 12.074522112343544 0 0 0
2979 1 6.676275786809633 5.930001598058882 11.302534318946822 0 0 0
3378 1 6.700802012651825 6.729808698307497 12.175308770839816 0 0 0
2980 1 5.967261885814392 6.638670299304282 11.397458050242289 0 0 0
3381 1 7.44284733385808 5.872794404565085 12.118450799198165 0 0 0
2984 1 7.455442977028009 6.656794855188123 11.396015768283519 0 0 0
2983 1 8.19718066409942 6.019545316170468 11.374218174172107 0 0 0
3385 1 8.94432742535649 5.880706261481985 12.160073347320932 0 0 0
2987 1 9.893874832738206 5.902599913923396 11.382878923913427 0 0 0
3389 1 10.564319948462217 6.002540991898918 12.392553736272049 0 0 0
3386 1 9.733648805034385 6.694205789383232 12.082384183380551 0 0 0
2992 1 10.692969161732691 6.691751521591904 11.50681714267252 0 0 0
2991 1 11.281653412354295 5.892931894470458 11.51756359253946 0 0 0
3393 1 12.155333707905381 5.780740969556899 12.127549532101199 0 0 0
3390 1 11.33118377473652 6.661293614948972 12.312155558221896 0 0 0
2996 1 12.16983513929684 6.669253831596312 11.516754873067434 0 0 0
2995 1 12.998163388376081 5.828314191700507 11.385822646887775 0 0 0
3397 1 13.63361560230662 5.91677967743248 12.117961817650261 0 0 0
3394 1 12.974965456390997 6.645652504411223 12.182620041101071 0 0 0
3000 1 13.807853381456045 6.703825220756497 11.33846834327348 0 0 0
2999 1 14.506397653822319 5.961921188351163 11.390921470265308 0 0 0
3398 1 14.48610882902955 6.74753586853102 12.113176045634628 0 0 0
3003 1 0.5198483600180225 7.348779777742445 11.418852816765686 0 0 0
3401 1 15.248432831062678 7.364009267599978 12.172936263683841 -1 0 0
3405 1 1.2176292073992039 7.4547728368845165 12.309995836679605 0 0 0
3007 1 2.018122097017428 7.4537044534350025 11.472352121077677 0 0 0
3011 1 3.486624039754976 7.488911909330929 11.275446601431643 0 0 0
3409 1 2.813012116444015 7.420271186979011 12.282931150542758 0 0 0
2976 1 4.2371218434735205 6.804320958487742 11.37645130842235 0 0 0
3413 1 4.360869593083987 7.524951499815748 12.156347305795226 0 0 0
3015 1 5.071379716154969 7.4429235765670985 11.27783927977675 0 0 0
3417 1 5.944547951181615 7.41183023518639 12.193809263781311 0 0 0
3019 1 6.781533529814777 7.380891428840496 11.332572891342199 0 0 0
3382 1 8.043163429285915 6.7751047307216945 12.178169977942272 0 0 0
3421 1 7.399617956593645 7.531808492599444 12.104865164951772 0 0 0
2988 1 8.973816867732133 6.7260205646027025 11.375248102078995 0 0 0
3023 1 8.207385424617847 7.456775622734288 11.415323407918205 0 0 0
3425 1 8.967798772160368 7.509040266366826 12.222792641759156 0 0 0
3028 1 8.976141907320962 8.126003925215983 11.315212334244151 0 0 0
3027 1 9.789908141908864 7.462042515247479 11.32152411244104 0 0 0
3429 1 10.559773177038469 7.559998079590282 12.123610370700817 0 0 0
3031 1 11.34676603167048 7.464887799553554 11.457230128419628 0 0 0
3433 1 12.1784167551533 7.555708554048089 12.194788997246295 0 0 0
3036 1 12.179604879817322 8.283773544313352 11.31888578038821 0 0 0
3035 1 12.889721893201035 7.514930594649013 11.395065657071981 0 0 0
3437 1 13.74450432886179 7.358824348847061 12.203343653595908 0 0 0
3039 1 14.42288610630786 7.477210440085304 11.381443339846484 0 0 0
3402 1 0.2583155053033348 8.281089515291583 12.247317439917314 0 0 0
3043 1 0.5070471894008404 8.979149105373875 11.413611924260358 0 0 0
3008 1 1.1718534924402604 8.154754557484768 11.476835180524894 0 0 0
3406 1 1.946387317629652 8.198182611137455 12.198893026838856 0 0 0
3445 1 1.0957677971353883 9.075022356912331 12.16366281741783 0 0 0
3047 1 1.8289143267794663 9.102475319977671 11.520295531311017 0 0 0
3410 1 3.607949400066162 8.165608305641747 12.191471817181075 0 0 0
3012 1 2.8573426367109795 8.225416401584368 11.286424629597914 0 0 0
3051 1 3.638004089614885 9.011350899613436 11.33527029793154 0 0 0
3449 1 2.916241770630397 8.951471282826628 12.065091738515989 0 0 0
3414 1 5.214298085839491 8.133373340764734 12.05214066966603 0 0 0
3016 1 4.340316316956629 8.227056094732742 11.368006269144882 0 0 0
3453 1 4.4139920857146056 8.91763017845582 12.100277907617908 0 0 0
3055 1 5.121259043646693 8.94176523215674 11.329884797295179 0 0 0
3020 1 5.998318687346795 8.068297549944276 11.359865650457142 0 0 0
3418 1 6.790117955804211 8.320943517468148 12.20655037058728 0 0 0
3457 1 5.8791394037462075 8.927383777907515 12.10656329015941 0 0 0
3059 1 6.593456555079228 8.942823167838128 11.34204486580619 0 0 0
3024 1 7.385491628052428 8.243906707966303 11.24376280113363 0 0 0
3461 1 7.451056899547697 9.126995676062368 12.194607398930394 0 0 0
3063 1 8.13240737285006 8.994128393418773 11.385099472689198 0 0 0
3422 1 8.23975817200045 8.236422402082173 12.104161830932426 0 0 0
3465 1 8.956494604128093 9.00771432578069 12.10597740077609 0 0 0
3032 1 10.667481232108099 8.236293834624142 11.242536911805246 0 0 0
3426 1 9.704447473846791 8.207609634358441 12.117043137990958 0 0 0
3067 1 9.713435101002023 8.904556382377418 11.41604555272118 0 0 0
3469 1 10.547605312146203 8.960910241648044 12.22721500130924 0 0 0
3430 1 11.384365413300056 8.320992639455394 12.048362600334404 0 0 0
3071 1 11.293330752395526 9.067156429608648 11.34591965201593 0 0 0
3473 1 12.126527015503587 9.158972344558716 12.112914493562684 0 0 0
3040 1 13.726101928822448 8.324527885265152 11.45520246079461 0 0 0
3075 1 12.930433868115674 8.976019207100236 11.302530762834884 0 0 0
3477 1 13.77910199683068 9.185023353582316 12.180038736664553 0 0 0
3434 1 12.952409801167963 8.297778284467363 12.216476655086538 0 0 0
3441 1 15.220707506535529 9.130582560550952 12.10682205653946 -1 0 0
3004 1 15.123105239654631 8.250066847377656 11.365903645504119 -1 0 0
3438 1 14.476473258063155 8.316124057667604 12.158680387164374 0 0 0
3079 1 14.467514158182901 9.049603549344056 11.253625412880943 0 0 0
3083 1 0.5177811581078096 10.739048821842584 11.359767169476772 0 0 0
3442 1 0.4011668408721877 9.84497513137833 12.14239449427707 0 0 0
3044 1 -0.2723653140988692 9.848294596065589 11.24420289763803 0 0 0
3481 1 -0.23522389209053224 10.641719346825553 12.163475899997884 0 0 0
3048 1 1.2198494574658336 9.89685020415779 11.453797303512655 0 0 0
3485 1 1.2382459229645475 10.616739872430944 12.25958050474543 0 0 0
3446 1 1.9590008977958093 9.832407887759796 12.28714177300455 0 0 0
3087 1 2.1410664306586664 10.545819190255841 11.413103876619466 0 0 0
3489 1 2.8905439230409877 10.414463182203836 12.136777025722598 0 0 0
3052 1 2.7830967383790797 9.738965148747301 11.46449415272512 0 0 0
3091 1 3.5347275195124572 10.459379479215357 11.369740399271524 0 0 0
3450 1 3.7132467646470797 9.744124259740847 12.146014861692628 0 0 0
3056 1 4.488260108140768 9.793955495177133 11.438219661569526 0 0 0
3095 1 5.301844772210151 10.62574513874737 11.33679314493121 0 0 0
3493 1 4.358430827848422 10.618133735303417 12.100026081747131 0 0 0
3454 1 5.169559212009437 9.738498885222192 12.164599084664605 0 0 0
3060 1 5.816759582575483 9.707648156076619 11.333667903870687 0 0 0
3497 1 5.935948108055975 10.562203541359178 12.11822436648924 0 0 0
3458 1 6.5997536479525545 9.68896861864776 12.068580662205932 0 0 0
3099 1 6.577367938746568 10.484080197699384 11.340224952955502 0 0 0
3064 1 7.522270520636154 9.85829334453435 11.338064145936311 0 0 0
3501 1 7.35671503513029 10.554513958758331 12.05622559887609 0 0 0
3103 1 8.286754770383663 10.52191059171669 11.293037204495338 0 0 0
3462 1 8.28177732415995 9.825199294624618 12.08671757410388 0 0 0
3068 1 9.023127924704621 9.784557057946387 11.318942589279889 0 0 0
3505 1 9.016767721890659 10.592789431088153 12.154998410476662 0 0 0
3072 1 10.521704209306613 9.753812586801388 11.324667569627238 0 0 0
3466 1 9.691653564604426 9.752815951709167 12.122532528609785 0 0 0
3107 1 9.80714374281581 10.534722681727999 11.324341874217499 0 0 0
3509 1 10.532200300023028 10.585206944451691 12.111207249461806 0 0 0
3470 1 11.286128338508103 9.782685126581313 12.12723970268966 0 0 0
3111 1 11.37295889687529 10.568084774272965 11.329465464627678 0 0 0
3076 1 12.178634584927053 9.746806033263606 11.313944755532582 0 0 0
3513 1 12.158313347977213 10.658076177530365 11.989312524309558 0 0 0
3474 1 12.914100774538475 9.819842303788544 12.018786639902274 0 0 0
3115 1 13.007232617017252 10.643998680306261 11.383682547100612 0 0 0
3080 1 13.810893607591478 9.809004384619012 11.404196496865278 0 0 0
3517 1 13.72277047953014 10.567937579069 12.06346283852405 0 0 0
3119 1 14.668390654396767 10.654672156430902 11.40324018085835 0 0 0
3478 1 14.538994889516779 9.891784850137242 12.158768390439281 0 0 0
3123 1 0.49115163836873776 12.189978956918214 11.253914775191056 0 0 0
3482 1 0.5652708727098765 11.430042745521426 12.163172823839531 0 0 0
3521 1 -0.2135520374996952 12.158273169043895 12.12662763137488 0 0 0
3088 1 1.255707012046231 11.445904817120951 11.246596284256697 0 0 0
3525 1 1.3272334486760864 12.154937321067735 12.137551689228033 0 0 0
3486 1 1.9697133064185723 11.371369270920532 12.003882361357192 0 0 0
3127 1 2.0379078834692246 12.119161173189788 11.360486306124276 0 0 0
3092 1 2.9044617427146 11.286193292671406 11.285772903799401 0 0 0
3490 1 3.5338659857225347 11.33556752917017 11.982075134371343 0 0 0
3131 1 3.5696088215999704 12.140233175210124 11.3442272679295 0 0 0
3529 1 2.787509484426808 12.038619905016592 12.124265638000974 0 0 0
3096 1 4.362722212532603 11.244314220374523 11.28769216168898 0 0 0
3494 1 5.091837721247618 11.342003294907165 12.036656091934535 0 0 0
3135 1 5.230823489423691 12.171199891038842 11.284664217860342 0 0 0
3100 1 5.996330773593731 11.315790520203073 11.363504831541675 0 0 0
3537 1 5.8203278861829535 12.075155588759205 12.187260785615376 0 0 0
3139 1 6.767848593668897 12.173704108279729 11.348988770570411 0 0 0
3498 1 6.575079201533809 11.391613749830476 12.183872698323416 0 0 0
3104 1 7.455368367930442 11.232400578355083 11.363697992611606 0 0 0
3541 1 7.366693500859438 12.072801862972511 12.174557205533272 0 0 0
3502 1 8.279153646622838 11.266819777646251 12.039644051318199 0 0 0
3143 1 8.221000058303822 12.238089204890073 11.501060354856431 0 0 0
3108 1 9.040239694169443 11.384676625874427 11.354112519921916 0 0 0
3545 1 8.964886783398772 12.209777368135587 12.228810110708068 0 0 0
3506 1 9.849078236116192 11.318353355997345 12.041848146946727 0 0 0
3147 1 9.757607575908608 12.180367679881194 11.458467720126833 0 0 0
3112 1 10.614595729484002 11.30274771203386 11.317211692324356 0 0 0
3549 1 10.598782630337102 12.1191442295518 12.115990077283975 0 0 0
3116 1 12.20729390360216 11.486113882236413 11.4198711256983 0 0 0
3510 1 11.419364379243504 11.306449403248855 12.137052121800401 0 0 0
3151 1 11.390451818374238 12.199172972160873 11.316459144688647 0 0 0
3553 1 12.04341618379307 12.083015193016593 12.178916953307436 0 0 0
3514 1 13.032209894811949 11.315791457570409 12.15264790326065 0 0 0
3155 1 13.054165473775068 12.130516212516593 11.37023398621341 0 0 0
3120 1 13.981475458355593 11.364683516614996 11.332847387487142 0 0 0
3557 1 13.755163862772552 12.088378302384491 12.206967769405427 0 0 0
3084 1 -0.2378730068552668 11.469514867688734 11.380424642495623 0 0 0
3518 1 14.58479273884969 11.37575685917944 12.174670132741284 0 0 0
3159 1 14.457341126557157 12.217422075253424 11.416886389441835 0 0 0
3522 1 0.5383906179190401 12.923158895965223 12.125446041091955 0 0 0
3163 1 0.4131174151061713 13.73036078768855 11.425048260318569 0 0 0
3561 1 15.187430023403238 13.789721880178238 12.22728407322878 -1 0 0
3128 1 1.2262470179311504 12.938352415438747 11.313481380756386 0 0 0
3526 1 2.0460067258500576 12.986024771651568 11.985950600128966 0 0 0
3565 1 1.3428307469156762 13.781873945149659 12.127880167466547 0 0 0
3167 1 1.9777181314067098 13.739518669995608 11.320643850025256 0 0 0
3132 1 2.772063285725494 13.000554541184421 11.295195869684719 0 0 0
3530 1 3.474206072893909 12.903819756719024 12.070005362458836 0 0 0
3171 1 3.632647053548641 13.784213495299252 11.171798040068019 0 0 0
3569 1 2.9547111062625824 13.77878456701249 12.054024710524295 0 0 0
3533 1 4.344345127094536 12.143499059892257 11.981561303294832 0 0 0
3136 1 4.200702938409749 12.969384460277954 11.204105234564107 0 0 0
3534 1 5.12774610333024 12.866563042761545 12.11817675056762 0 0 0
3175 1 5.215547865069631 13.770228966537516 11.36445449673294 0 0 0
3573 1 4.3916067034919894 13.546445354917765 12.037228837050641 0 0 0
3140 1 5.944518314590564 12.944173733715257 11.35443374283259 0 0 0
3577 1 5.953979737776177 13.79790075476765 12.100231274026026 0 0 0
3538 1 6.734340472194403 12.911414660377488 12.024028307337648 0 0 0
3179 1 6.667892530333059 13.734527643207755 11.39036626554395 0 0 0
3144 1 7.517669927572899 13.052710848849234 11.37243766160373 0 0 0
3581 1 7.433238126073185 13.718819636355448 12.188857317745022 0 0 0
3183 1 8.286555888907127 13.67849814077541 11.370999408557498 0 0 0
3542 1 8.320558664642995 12.958364407765586 12.295029668246013 0 0 0
3148 1 8.989710395551356 12.950927028047413 11.342334558538454 0 0 0
3585 1 9.105392734875771 13.639253566044694 12.101936482275857 0 0 0
3546 1 9.825942489841076 12.984803667067421 12.114012381753188 0 0 0
3152 1 10.571411579363119 12.914501428812368 11.385180528200237 0 0 0
3589 1 10.47397199612768 13.707500790770762 12.150177228925042 0 0 0
3187 1 9.797406574502428 13.598995925951762 11.281515402752127 0 0 0
3156 1 12.04004500992609 12.896285619486559 11.344785713802278 0 0 0
3550 1 11.384448332571687 13.010527782090133 12.073494165027501 0 0 0
3191 1 11.37128195068134 13.813902611363787 11.330944632974571 0 0 0
3593 1 12.028747746585847 13.747822593937734 12.091530816802518 0 0 0
3554 1 12.992388000690411 12.878348055865214 12.008935294838793 0 0 0
3195 1 12.973866994565824 13.640667811044075 11.387391788302558 0 0 0
3160 1 13.702209966583087 12.993014401810019 11.228772848496845 0 0 0
3597 1 13.80574346142744 13.84768672692094 12.200722343042855 0 0 0
3124 1 -0.23459054760852244 12.922497179530492 11.408337401127636 0 0 0
3558 1 14.537380836033414 12.928181032748029 12.163515389238992 0 0 0
3199 1 14.54982895161028 13.690505263093616 11.427758944317965 0 0 0
3562 1 0.43581442899909784 14.429064596400217 12.164509198737367 0 0 0
3164 1 15.238165642928003 14.424654504174192 11.352431449730872 -1 0 0
3168 1 1.102928641082814 14.496440460724859 11.37181049835683 0 0 0
3566 1 2.0935991873205526 14.530770068393721 11.984690489382384 0 0 0
3172 1 2.8056883029043944 14.523647940443755 11.318498798491458 0 0 0
3570 1 3.6596801542766992 14.536605162777018 12.037257144777364 0 0 0
3176 1 4.480052614469899 14.492395464169483 11.354370808939478 0 0 0
3574 1 5.074158754536973 14.526955252915219 12.07865933650016 0 0 0
2819 1 6.740806694048083 -0.23067886141556126 11.388982336288876 0 0 0
3180 1 5.858604459680806 14.533163727746874 11.351253602427306 0 0 0
3578 1 6.571476815260873 14.521103159273522 12.165197066055526 0 0 0
3184 1 7.422387871824001 14.547993541798977 11.380386154508258 0 0 0
3225 1 9.037382700066797 15.240016122355804 12.088445053070195 0 -1 0
3582 1 8.271896601584487 14.382375675813861 12.117025889883482 0 0 0
3188 1 9.02590154827864 14.358545205119857 11.42628437650388 0 0 0
3586 1 9.737239053739259 14.510265433783857 12.224718684402017 0 0 0
3192 1 10.595279568878905 14.415435841832153 11.30625213106352 0 0 0
2831 1 11.402287553203678 15.18443304160736 11.311235399673478 0 -1 0
3233 1 12.174606355146139 15.237449849375412 12.08900510300888 0 -1 0
3590 1 11.357249967921213 14.523694202288695 12.13621955874985 0 0 0
3196 1 12.083748727129265 14.521435042680082 11.330766323885115 0 0 0
2835 1 12.840196078445377 -0.2316341914480649 11.33040741633572 0 0 0
3237 1 13.656671856948435 -0.26428688069870127 12.181738598952688 0 0 0
3594 1 12.899607062756438 14.452994634928146 12.067661520977467 0 0 0
3200 1 13.522506233258355 14.514642257000197 11.322831951306533 0 0 0
3598 1 14.530865815051168 14.563845979442572 12.196241358808066 0 0 0
3602 1 0.3768958774209028 0.48084977480271607 13.557682574621282 0 0 0
3203 1 0.5724895378074283 15.166015849431709 12.833678140008033 0 -1 0
3208 1 1.236113513827271 0.5145244669451011 12.83713648749061 0 0 0
3606 1 2.0638001890309083 0.5783906663111332 13.554669296135526 0 0 0
3605 1 1.3146857490882753 -0.16769799831763282 13.71539613920666 0 0 0
3212 1 2.80791423058418 0.5501500415472858 12.813392671087094 0 0 0
3211 1 3.588489460439333 -0.152267007084757 12.826400468896125 0 0 0
3610 1 3.6302982807690447 0.5813120282159087 13.684793158002456 0 0 0
3216 1 4.381038721787297 0.4770060452375635 12.786352027692864 0 0 0
3614 1 5.090025281888082 0.5085592131652994 13.568003957456941 0 0 0
3215 1 5.090858933852643 -0.2100342723807091 12.787310137272534 0 0 0
3220 1 5.986371251715437 0.4943790885190098 12.901567985807993 0 0 0
3618 1 6.710248554299319 0.47058073792475574 13.74336532214782 0 0 0
3219 1 6.77450627821715 -0.24107304761739612 12.957844668400124 0 0 0
3224 1 7.568135902082284 0.5809549637096443 12.926455512116565 0 0 0
3621 1 7.400629944637893 15.247264337314622 13.809007953486319 0 -1 0
3622 1 8.426211485554646 0.48546511524240255 13.626764712844615 0 0 0
3228 1 8.965449219083016 0.4261362805649148 12.754007018951626 0 0 0
3223 1 8.153785907920039 -0.28284909075028614 13.005760011233075 0 0 0
3232 1 10.74645222722015 0.5790868954812336 12.818758924074181 0 0 0
3626 1 9.969070545142554 0.540483189506258 13.6825653342683 0 0 0
3669 1 10.631726263228884 1.3276930848175146 13.781924875149592 0 0 0
3629 1 10.70404588188293 -0.2619807678832876 13.625312526790644 0 0 0
3236 1 12.198824062461764 0.5349411543747691 12.909238325945022 0 0 0
3630 1 11.326815141682264 0.5893700523271339 13.706543283142864 0 0 0
3634 1 12.8561227480504 0.5415854120139816 13.713930379359514 0 0 0
3240 1 13.673538057675916 0.48765381331482904 12.969440176639907 0 0 0
3275 1 12.794840797432805 1.3859348044495337 12.886399691820383 0 0 0
3637 1 13.71793777257724 15.212013766205946 13.713926502027636 0 -1 0
3204 1 15.132596605531617 0.41782514790363046 12.926270959569258 -1 0 0
3638 1 14.419652221615387 0.45361035528273863 13.686627464749773 0 0 0
3243 1 0.36293130592322653 1.1680438506238169 12.8295707798735 0 0 0
3642 1 0.3402543186612933 1.9292548637155695 13.745168156335975 0 0 0
3641 1 15.22772410952582 1.1646771828483524 13.537916320903928 -1 0 0
3244 1 15.248619217618177 2.0668577554480514 12.977245017573683 -1 0 0
3645 1 1.1555877279245323 1.2499675807269508 13.650435116053675 0 0 0
3248 1 1.0837675968434546 1.969433130581082 12.895227260428932 0 0 0
3247 1 1.8600515903284736 1.3503323080981995 12.92351873532191 0 0 0
3646 1 2.0319715116391475 1.9919835876201057 13.75750968639666 0 0 0
3251 1 3.5008400715142916 1.2272056577609218 12.91909410429118 0 0 0
3252 1 2.6623112582073363 1.9731603981227863 12.986319274675708 0 0 0
3650 1 3.590585288048056 2.024061696711352 13.52141613238349 0 0 0
3649 1 2.838111803932444 1.247915215097009 13.717159292167121 0 0 0
3255 1 5.213869063184196 1.2532686459032902 12.933561020132963 0 0 0
3256 1 4.37935294547687 2.05059844046139 12.795395267426496 0 0 0
3654 1 5.194133408774173 2.040416405818459 13.656198411462789 0 0 0
3260 1 5.9921498311008605 1.9833027619249641 12.823978051363664 0 0 0
3657 1 5.950020233755804 1.3089959029853035 13.8020516981191 0 0 0
3259 1 6.797777023901591 1.2263073848136832 12.862419311350465 0 0 0
3658 1 6.725120225142964 2.0240783756262943 13.707857070260804 0 0 0
3264 1 7.524371523243721 2.0937277926459195 12.880515914180709 0 0 0
3661 1 7.462241223970872 1.257442634705975 13.717199666316226 0 0 0
3263 1 8.194415976785507 1.3686957038694474 13.002772469237922 0 0 0
3662 1 8.170969448348757 2.1268991655012424 13.799800642939903 0 0 0
3268 1 9.048319298646717 2.1540173753519247 12.97021007915226 0 0 0
3665 1 9.013849843130213 1.2812338589905528 13.808791821482668 0 0 0
3267 1 9.902034129832177 1.2848378943067078 12.856530019705467 0 0 0
3272 1 10.55138790847042 2.044122022733619 12.942813334734645 0 0 0
3666 1 9.720946416498457 1.964614969767489 13.71482672471868 0 0 0
3271 1 11.341000594976734 1.3197157850970134 13.003839699427054 0 0 0
3276 1 12.011881079243576 2.0115727798775462 12.897316964402766 0 0 0
3673 1 12.093377421374917 1.2830068415989826 13.72976146945605 0 0 0
3670 1 11.413951303993603 2.1040791286805183 13.784361117781664 0 0 0
3280 1 13.682247714865621 2.069591395797812 13.044618585511756 0 0 0
3677 1 13.731562123624688 1.3003307222573508 13.736201602553837 0 0 0
3674 1 12.915891140988247 2.0703067105263386 13.69659851852617 0 0 0
3279 1 14.350411846934495 1.3438378270004352 12.974224719002205 0 0 0
3678 1 14.567396739696772 2.0503363515571147 13.731881968003297 0 0 0
3283 1 0.4566640042613602 2.762330822244937 13.051526112420348 0 0 0
3682 1 0.39428630443242974 3.5527136969115816 13.718136390738977 0 0 0
3681 1 -0.29662322972490174 2.8581937392924384 13.760173881083116 0 0 0
3288 1 1.2981137436421724 3.4367826786946103 12.950128659086328 0 0 0
3287 1 2.009048068962836 2.7201389262387963 12.918441731497413 0 0 0
3686 1 2.038937281111553 3.4849126960301957 13.72997528569283 0 0 0
3685 1 1.27083966406599 2.7456730587842273 13.710340110677205 0 0 0
3291 1 3.550528249733697 2.749388523708277 12.920427560399187 0 0 0
3292 1 2.7066620898554525 3.4619689291790623 12.881154532798377 0 0 0
3690 1 3.4898281839062935 3.5061693881887375 13.564535263203918 0 0 0
3689 1 2.815263590657497 2.8017940463212714 13.657336312937211 0 0 0
3295 1 5.170741555295374 2.6392322101064547 12.778624353657541 0 0 0
3296 1 4.415670140609191 3.5031571940176955 12.884032764203774 0 0 0
3693 1 4.320408941747865 2.779515279653744 13.62445247722394 0 0 0
3694 1 5.171987027458844 3.4276863911902065 13.581361693817932 0 0 0
3300 1 5.937449318922937 3.52190591057572 12.866060911202439 0 0 0
3697 1 6.002146043294004 2.678771519640093 13.756493548550857 0 0 0
3698 1 6.666983930589187 3.4634692791100172 13.689512304191531 0 0 0
3299 1 6.7379029954083185 2.7661197425526702 12.846880050759452 0 0 0
3304 1 7.533383705146014 3.507174318570347 12.843884487678924 0 0 0
3701 1 7.476618020017869 2.7944327081532347 13.684797901384986 0 0 0
3702 1 8.145917438166403 3.592472690078567 13.837909286708044 0 0 0
3303 1 8.228199016431777 2.8349174467280083 13.056123422916375 0 0 0
3308 1 8.926546590017715 3.549241150529622 12.966869883634367 0 0 0
3705 1 8.949059997058779 2.787516502024751 13.760875242042975 0 0 0
3307 1 9.815696277887376 2.778074410933402 12.918876664864289 0 0 0
3312 1 10.621389558860663 3.622619038610869 12.917008973483135 0 0 0
3709 1 10.640783292992278 2.7496691127921435 13.732329270437646 0 0 0
3706 1 9.782245189755926 3.5367607672597385 13.65059387240695 0 0 0
3311 1 11.288414381846838 2.8151533427021813 12.88095227236397 0 0 0
3316 1 12.182293621148894 3.550382328379538 12.959046073459518 0 0 0
3713 1 12.075780393009154 2.8056348252438714 13.722027622420505 0 0 0
3710 1 11.444442522292306 3.6219336277793914 13.694146617318594 0 0 0
3315 1 12.87339496834782 2.7375501067351604 12.918357839534515 0 0 0
3717 1 13.63828169378873 2.8153227578274462 13.757088692411962 0 0 0
3320 1 13.72288235802749 3.5647040750039016 13.038220491694428 0 0 0
3714 1 12.939343752921069 3.5332275726092863 13.687084936442801 0 0 0
3284 1 -0.2441182241237587 3.6449209156879303 12.968813888648565 0 0 0
3319 1 14.474706848626688 2.777008899784149 13.047000150612313 0 0 0
3718 1 14.460360028634575 3.506734458564794 13.838786680194247 0 0 0
3323 1 0.6329872878587589 4.287293580508717 12.989826445870701 0 0 0
3721 1 15.245079137181762 4.357686071089883 13.6730596448324 -1 0 0
3328 1 1.2236475559279347 5.095831475916797 12.945670460203424 0 0 0
3327 1 1.9144408670068471 4.265121277297655 12.953450917436307 0 0 0
3726 1 1.9364115743484822 5.017211768681041 13.791216455833155 0 0 0
3725 1 1.259424040982729 4.232165425378069 13.829507366196413 0 0 0
3331 1 3.5636744699500422 4.294143125610916 12.832831511333737 0 0 0
3332 1 2.8030779934294605 5.084196543436235 12.995429486628428 0 0 0
3730 1 3.676502533780374 5.0035308410934505 13.55985275017234 0 0 0
3729 1 2.747496422027187 4.310231819598893 13.612928842024516 0 0 0
3335 1 5.1118276501019375 4.347750629830291 12.883093326451128 0 0 0
3336 1 4.317228087423304 5.115967816127476 12.815087701207869 0 0 0
3733 1 4.450533807492825 4.261287301061272 13.650808659121733 0 0 0
3734 1 5.145128135216196 5.045111869038812 13.693124760262958 0 0 0
3340 1 5.958437619975871 5.089388072546723 12.936212072326079 0 0 0
3339 1 6.637904786285025 4.24303178597763 12.847460399515832 0 0 0
3737 1 5.904740945221784 4.151728123579645 13.679265591906983 0 0 0
3738 1 6.647897752060273 5.084698088276176 13.711017019186137 0 0 0
3344 1 7.3984466683082974 5.060887745705635 12.824930663177977 0 0 0
3741 1 7.386054472978383 4.283960442573661 13.624591835048182 0 0 0
3343 1 8.234699452193194 4.28182809561593 13.000259094474881 0 0 0
3742 1 8.220876672727368 5.144567415093196 13.721820829489353 0 0 0
3745 1 8.998432775367046 4.365079445853096 13.682368436791382 0 0 0
3348 1 9.087412569146288 5.114221433484141 12.95182209480842 0 0 0
3347 1 9.712120134936718 4.413005214231912 12.975575523591019 0 0 0
3352 1 10.660000771784112 5.079322156019015 12.996520859335828 0 0 0
3746 1 9.885440871735852 5.166768164176231 13.668980574232027 0 0 0
3749 1 10.620339486479637 4.349303348797386 13.678598001882502 0 0 0
3351 1 11.46669997659912 4.300870136178111 12.840709202989462 0 0 0
3356 1 12.226873120141914 4.949062364967851 12.966722110106272 0 0 0
3750 1 11.40716435846021 5.121026601735584 13.753420882100993 0 0 0
3753 1 12.139099550279614 4.296749364649274 13.734687877088295 0 0 0
3355 1 12.93361738399144 4.241587561908823 12.913867449694699 0 0 0
3754 1 12.94969722284766 5.13710288967412 13.712024415878329 0 0 0
3360 1 13.620283035207859 5.129245512941588 12.905739380248047 0 0 0
3757 1 13.730452897928377 4.274101913095744 13.82181106868633 0 0 0
3324 1 -0.16887550824345046 5.060283561941028 12.959174785606631 0 0 0
3359 1 14.609015392584158 4.511331327373816 12.820126411637112 0 0 0
3758 1 14.531868580555674 5.128295195194836 13.743589373472133 0 0 0
3363 1 0.5144269096931926 5.983661788348529 13.017030824887971 0 0 0
3368 1 1.3080689548988267 6.7508929646464875 13.09183611105097 0 0 0
3367 1 1.9232956725545316 5.85449333635072 13.002681069333363 0 0 0
3765 1 1.3665932537724175 5.973900379067144 13.848248519029227 0 0 0
3766 1 1.9918346191977898 6.745144894546197 13.798707804797534 0 0 0
3371 1 3.609331715185399 5.905695166913132 12.856071160320791 0 0 0
3769 1 2.8498814176838887 5.891186080737574 13.610982129523027 0 0 0
3770 1 3.631943881260283 6.775271622215618 13.70562800433192 0 0 0
3372 1 2.665548238896476 6.6766777847264 13.017633593840376 0 0 0
3375 1 5.207579766029373 5.897515610699928 12.933405323728675 0 0 0
3773 1 4.382338138674829 5.985059975109286 13.70774818058969 0 0 0
3376 1 4.467554290879703 6.756142745243013 12.963719232582285 0 0 0
3774 1 5.189928906314371 6.631990220213391 13.77863020729297 0 0 0
3777 1 5.904078546272698 5.900955218500698 13.708376923189483 0 0 0
3380 1 5.873371772438104 6.619409517879558 12.979209440924535 0 0 0
3379 1 6.65044600717119 5.8432240211355655 12.948803328965031 0 0 0
3781 1 7.413491837522482 5.801202885663867 13.74907016441664 0 0 0
3383 1 8.133685426699401 5.902408841489457 12.898449958371398 0 0 0
3785 1 9.005207803633173 5.904870720330578 13.836630915876004 0 0 0
3387 1 9.622120178048423 5.995308125891687 13.044120974744782 0 0 0
3789 1 10.425900489507868 5.967253386887344 13.704073441775694 0 0 0
3786 1 9.683161377556353 6.815595664346507 13.703984776831735 0 0 0
3392 1 10.48154968963398 6.781740745074518 13.084551873547802 0 0 0
3391 1 11.339534338324405 5.805834660146621 13.106676801496775 0 0 0
3793 1 12.202461211951796 5.882332159971849 13.61698910605519 0 0 0
3790 1 11.365928659786814 6.688196376736452 13.660786854785925 0 0 0
3396 1 12.125619001678995 6.640660405969705 12.930300835436359 0 0 0
3395 1 12.854760939987028 5.9722700653448495 12.9114295181026 0 0 0
3400 1 13.898026412706198 6.575501677573463 12.939830523662017 0 0 0
3794 1 13.00930634841654 6.677521211410512 13.650053372070413 0 0 0
3761 1 -0.25312542743508476 5.9287664185174505 13.753197259786365 0 0 0
3399 1 14.591676835086574 5.856318162561661 13.021927032203305 0 0 0
3798 1 14.565399215613532 6.68649777507095 13.698327552513032 0 0 0
3762 1 0.5279479377941927 6.6097847326673405 13.781815445034862 0 0 0
3403 1 0.4350719341963528 7.41613712379565 13.023457063208802 0 0 0
3404 1 15.198979258044698 8.193400588213084 13.011660585804371 -1 0 0
3805 1 1.2301937044035192 7.648156632118393 13.659551877079696 0 0 0
3407 1 2.02667867292466 7.439517964675149 12.976237088047714 0 0 0
3411 1 3.6557779222980296 7.492135295098608 12.893856168603758 0 0 0
3809 1 2.8232144331137548 7.463322281029391 13.663804338285402 0 0 0
3415 1 5.215186401571718 7.478804480462276 12.968064089510992 0 0 0
3813 1 4.367084152492676 7.503289682683263 13.839537033765623 0 0 0
3778 1 6.63374563122976 6.705657250312583 13.725184041763708 0 0 0
3817 1 5.950097936104659 7.436289426840952 13.742259647731142 0 0 0
3419 1 6.749003447851576 7.5807892913563935 12.879272511493184 0 0 0
3384 1 7.404759913096313 6.754939668713073 12.972173886515868 0 0 0
3821 1 7.385452176837823 7.479788361042757 13.724331174288487 0 0 0
3782 1 8.171363695464855 6.67697199223827 13.707395441784175 0 0 0
3388 1 8.922174509397287 6.770244996493898 12.948421778498112 0 0 0
3423 1 8.151623288640625 7.436798397426044 13.001881210068674 0 0 0
3825 1 8.841531845841207 7.589308019153012 13.782451836427267 0 0 0
3427 1 9.766249244916015 7.527454693056247 12.996850144045258 0 0 0
3829 1 10.500206209730692 7.523363925452589 13.850258852873981 0 0 0
3431 1 11.458070480114436 7.533113441510664 12.89551161617667 0 0 0
3833 1 12.072202196739628 7.496794758125475 13.623295318239311 0 0 0
3830 1 11.357605984310108 8.284900445009647 13.699459854965788 0 0 0
3435 1 12.868572902597087 7.435169117520358 12.987071844195743 0 0 0
3837 1 13.717477229306006 7.485817494059717 13.674423401471305 0 0 0
3834 1 12.967730742139569 8.209170405695502 13.718585054883974 0 0 0
3364 1 -0.26620458443305955 6.680779170161567 12.983933714537926 0 0 0
3801 1 -0.30617310336310777 7.489740402368072 13.772988234764593 0 0 0
3439 1 14.482895258346922 7.453057832494202 12.92035679380676 0 0 0
3802 1 0.36957834262581346 8.287110300802503 13.731745050378361 0 0 0
3443 1 0.31314985410051466 8.972914916141939 13.010743943422668 0 0 0
3408 1 1.0367916485089537 8.310777710973557 12.968434663061924 0 0 0
3845 1 1.1585879053540213 8.99295119980043 13.75473723420599 0 0 0
3447 1 2.080256108723371 9.007104613691606 13.077561096130964 0 0 0
3806 1 2.0869636581364244 8.187824278938933 13.736050143441027 0 0 0
3412 1 2.769290972374249 8.251139150768527 12.890040922469094 0 0 0
3810 1 3.644427849701482 8.257525974667107 13.768954694384473 0 0 0
3451 1 3.626337389445756 8.922600153642161 13.015999633661231 0 0 0
3849 1 2.8488042366776267 8.915076519280248 13.754940635160434 0 0 0
3416 1 4.355808773757741 8.21208683393009 12.898371289722348 0 0 0
3455 1 5.10949234623702 8.832106622897133 12.871434077266908 0 0 0
3853 1 4.321108936458563 9.026841765960697 13.704087954853545 0 0 0
3814 1 5.063221682653614 8.24696414904961 13.786531501374238 0 0 0
3420 1 6.014789419601208 8.314159168971507 12.86136960674904 0 0 0
3857 1 5.794561919344384 8.950154930775202 13.750051130048266 0 0 0
3818 1 6.688205434390529 8.282955625009233 13.641872967970418 0 0 0
3459 1 6.651898623315576 9.116588367456824 12.9607861514292 0 0 0
3424 1 7.555764789746263 8.286616722291438 12.942928309794631 0 0 0
3861 1 7.342287239046554 9.291321215858876 13.732537145194303 0 0 0
3822 1 8.1420018088937 8.385617008810737 13.788957208925105 0 0 0
3463 1 8.25655494028948 8.995500204739894 12.848794370607497 0 0 0
3428 1 8.987496086581857 8.308424403424723 12.900315418177076 0 0 0
3865 1 8.979302212581239 8.954521241500974 13.779237038172308 0 0 0
3432 1 10.580081588282503 8.137361340426686 13.008443795947834 0 0 0
3826 1 9.661316643665199 8.257249328029744 13.683775257545882 0 0 0
3467 1 9.816094021804513 9.033310815471523 13.021442836976139 0 0 0
3869 1 10.508319546440784 9.000306980259595 13.817599758683318 0 0 0
3436 1 12.20872674380854 8.302060958767367 12.914677699910293 0 0 0
3471 1 11.401432289269636 9.076933305856876 12.883658441375776 0 0 0
3873 1 12.016138459260517 8.98443847861645 13.733211229972596 0 0 0
3440 1 13.667437021561287 8.34364205487054 12.925398775181321 0 0 0
3475 1 12.893274372122697 9.145062164708687 13.044537590396448 0 0 0
3877 1 13.695255856515029 9.036627270045749 13.732275377668532 0 0 0
3841 1 15.042621356341026 9.011863786695528 13.722369309833862 -1 0 0
3838 1 14.40901329098229 8.225241559866944 13.68525887650398 0 0 0
3479 1 14.529546527665499 9.007335284444544 12.859938270124825 0 0 0
3483 1 0.5345596041739213 10.571048545710752 12.933357591002888 0 0 0
3842 1 0.40442330692464057 9.748094233041531 13.63936171868595 0 0 0
3444 1 -0.31268976442776264 9.755361427161475 12.903632761817367 0 0 0
3448 1 1.1697612650190867 9.69078934265454 12.938947606904843 0 0 0
3885 1 1.3696002411347108 10.6070247207447 13.639833225205873 0 0 0
3487 1 2.2550151824639424 10.5439217406472 12.949970917391475 0 0 0
3846 1 2.0082126167018193 9.849865204523283 13.727756166630204 0 0 0
3452 1 2.982277218903628 9.673434292504638 12.86839718539916 0 0 0
3491 1 3.6779349967110666 10.505541349504469 12.975178092885962 0 0 0
3889 1 2.929019337441836 10.565461319750153 13.728129079567822 0 0 0
3850 1 3.6348317984109353 9.757147924112815 13.872066014164265 0 0 0
3456 1 4.379388588462031 9.780966611609347 12.926473446233203 0 0 0
3495 1 5.217313067134263 10.562784037167699 12.91104666499658 0 0 0
3854 1 5.106466769481258 9.823822781549438 13.705691768649558 0 0 0
3893 1 4.3712873633537646 10.61723980012398 13.711596331523502 0 0 0
3460 1 5.784100541011353 9.791358626212272 12.955523656303502 0 0 0
3897 1 5.895290512189116 10.532472293249672 13.777615664904289 0 0 0
3499 1 6.55018783856068 10.499344149214622 12.97502248315216 0 0 0
3858 1 6.421611284426793 9.763328759207514 13.74192542435216 0 0 0
3464 1 7.493904099309425 9.857409385368129 12.815239494421629 0 0 0
3901 1 7.542416650883038 10.491931348717891 13.628212343759117 0 0 0
3503 1 8.315076660099425 10.597885940189009 12.924219218040953 0 0 0
3862 1 8.25076990228553 9.7827840561593 13.655347110319454 0 0 0
3468 1 9.079383283417418 9.805230367464418 12.880840833785662 0 0 0
3905 1 9.027337161769147 10.652981604483713 13.66171943046616 0 0 0
3507 1 9.866533036256175 10.590139075871882 12.893471797227583 0 0 0
3472 1 10.534495000286292 9.81920044943038 13.012036929824479 0 0 0
3866 1 9.795086599698571 9.814924726097736 13.738572325525368 0 0 0
3909 1 10.563963402328142 10.623712590655916 13.700547917529011 0 0 0
3476 1 12.096879031185864 9.929198983053524 12.931487876028651 0 0 0
3511 1 11.302706632615877 10.563205522795766 12.852708831151151 0 0 0
3913 1 12.178352599786706 10.611619420068038 13.741145349783267 0 0 0
3870 1 11.273492051379115 9.831825998204902 13.829565542303062 0 0 0
3515 1 12.835031059227436 10.557260606064247 12.833872534416958 0 0 0
3480 1 13.57173944338114 9.820310419120784 13.014966065865543 0 0 0
3874 1 12.883303836825757 9.747746839056248 13.793860617913598 0 0 0
3917 1 13.646480726598291 10.578931920172941 13.683003302032393 0 0 0
3881 1 15.219168811472397 10.663729296368054 13.577402629118698 -1 0 0
3519 1 14.457060354210586 10.596176789588615 12.8702373888061 0 0 0
3878 1 14.412866559271649 9.844120604406704 13.639341801334961 0 0 0
3523 1 0.5967653247558667 12.21471391905649 12.93471934843852 0 0 0
3882 1 0.6033537898852738 11.271655821054921 13.68997121414166 0 0 0
3921 1 -0.25936783965584015 12.179902941975353 13.782183151303013 0 0 0
3925 1 1.3260373959777798 12.203071839257504 13.670423789798164 0 0 0
3488 1 1.289425931673191 11.439438646928554 12.909683288352866 0 0 0
3527 1 2.014727042748958 12.127933663866227 12.863588400667322 0 0 0
3886 1 2.220377714980606 11.296646267278216 13.716640996664353 0 0 0
3492 1 2.9797950419425336 11.20781063616485 12.85893689768308 0 0 0
3531 1 3.609081456242577 12.151354468279614 12.811729149431759 0 0 0
3890 1 3.682710249064579 11.383067819672632 13.606928919768482 0 0 0
3929 1 2.841356901824065 12.143000119507068 13.588152747451065 0 0 0
3496 1 4.451210596086667 11.3064470069817 12.923902807781591 0 0 0
3535 1 5.154831610047995 12.174726998660066 13.152805208413842 0 0 0
3894 1 5.2241667178161855 11.378211913016909 13.737604093654092 0 0 0
3933 1 4.317335689525112 12.203976466493756 13.671438293558474 0 0 0
3500 1 5.885247378568852 11.373599342195924 12.928818595067963 0 0 0
3937 1 5.995882131878638 12.119123665292413 13.74229354989333 0 0 0
3898 1 6.6102967566959165 11.322478608127312 13.732079058078362 0 0 0
3539 1 6.584029280035863 12.2139809629168 12.823995070586129 0 0 0
3504 1 7.318901529333098 11.244904687453989 12.947885231583324 0 0 0
3941 1 7.37089770931994 12.177862661628335 13.60019048940423 0 0 0
3902 1 8.163020413940142 11.411405935336315 13.680521151046165 0 0 0
3543 1 8.21025229236189 12.086429364902369 12.86815556271496 0 0 0
3508 1 9.100994676752531 11.455154726607923 12.809841775109543 0 0 0
3945 1 8.924599473683905 12.191053896058271 13.623245377805702 0 0 0
3512 1 10.581765165675204 11.32836455384281 12.81509488500119 0 0 0
3547 1 9.843982508548859 12.096580068028782 12.91355872059389 0 0 0
3906 1 9.72120473934941 11.37433262303109 13.67522649882806 0 0 0
3949 1 10.628654215716423 12.102991369803231 13.683008368713129 0 0 0
3516 1 12.212565211033809 11.377745529935233 12.905360309021102 0 0 0
3551 1 11.327750268366973 12.209547495957029 12.965032190441683 0 0 0
3953 1 12.106535708344438 12.115057135659132 13.601700584072471 0 0 0
3910 1 11.418880061582438 11.297734389044166 13.586611489662484 0 0 0
3555 1 12.833114907987113 12.201714405993947 12.897070377119892 0 0 0
3914 1 12.82756154819318 11.33909567599023 13.655434321742419 0 0 0
3520 1 13.64262320396315 11.47378546690604 13.082547793889187 0 0 0
3957 1 13.636986364888003 12.370350279773643 13.53138438816406 0 0 0
3484 1 -0.2682665569397322 11.422330767856963 13.021782542422411 0 0 0
3559 1 14.528880926130476 12.229093497278715 13.081470791876189 0 0 0
3918 1 14.285551663610676 11.423021701340566 13.808069175611855 0 0 0
3922 1 0.6594255603498641 12.911823947987429 13.674864613099391 0 0 0
3563 1 0.5238349826703357 13.734201493683614 12.87598956996029 0 0 0
3528 1 1.4253426644006075 12.972558133475136 12.880871163524475 0 0 0
3524 1 15.21522541329227 12.910885824240719 12.94110642998626 -1 0 0
3567 1 2.1052019455094837 13.764172913286771 12.79803989962262 0 0 0
3926 1 2.1848281608919256 12.88983572482569 13.750536534917963 0 0 0
3532 1 2.797798600322241 12.914966900800742 12.894128520407545 0 0 0
3571 1 3.666696981494946 13.677055794097875 12.7378779175 0 0 0
3969 1 2.8316094623166417 13.75911815800903 13.722913766508963 0 0 0
3930 1 3.4961394850432934 12.887507944363268 13.8012904798033 0 0 0
3536 1 4.287240986968367 12.930386325173757 12.885722711749832 0 0 0
3575 1 5.093773494516257 13.611662710279617 12.725149775616458 0 0 0
3934 1 5.042537504940509 12.92820721006893 13.828263079932086 0 0 0
3973 1 4.3546746863987265 13.752333590498235 13.609508293868018 0 0 0
3540 1 5.852501822217064 12.97999896313079 12.934828472534988 0 0 0
3579 1 6.731041256611481 13.630028005791406 12.883790975566445 0 0 0
3938 1 6.59559094281332 13.033394410054456 13.773448988310069 0 0 0
3977 1 5.760344669351322 13.734854675431727 13.765206855232353 0 0 0
3544 1 7.453798284094688 12.869190129315246 12.81486662190484 0 0 0
3981 1 7.311954706962708 13.791183240801992 13.754695262042208 0 0 0
3942 1 8.159927649225143 12.90541240220568 13.578851393664447 0 0 0
3583 1 8.174587319995112 13.71708784637088 12.957301005583265 0 0 0
3548 1 9.14263305704355 12.968089624210467 12.989080813281074 0 0 0
3985 1 8.865587189238365 13.801308999629281 13.651615786926897 0 0 0
3552 1 10.533301360780907 12.863318474518568 12.848701750926477 0 0 0
3946 1 9.844945136329972 13.0766464940941 13.764147554590348 0 0 0
3989 1 10.600291674057438 13.730086861177394 13.711290973455327 0 0 0
3587 1 9.786203999312928 13.739852073134756 12.937617109681362 0 0 0
3556 1 12.074318724654088 12.923389493665585 12.86301731346877 0 0 0
3591 1 11.296466211747216 13.75223829071788 12.804579815296993 0 0 0
3950 1 11.291791659764883 12.963285482048157 13.641715449022602 0 0 0
3993 1 12.061099396142897 13.776058944304022 13.590825114849473 0 0 0
3954 1 12.709973415373565 13.00383466916286 13.581168921054445 0 0 0
3595 1 12.976593469000576 13.651408104244215 12.83074316763835 0 0 0
3997 1 13.637651698436787 13.708614790834144 13.764575537581035 0 0 0
3560 1 13.724589458727255 12.995665546258298 12.795402022809707 0 0 0
3599 1 14.45239891905829 13.754059458016993 13.106737209423244 0 0 0
3958 1 14.62615487305835 13.009093034501582 13.828541678263079 0 0 0
3601 1 15.236413407610755 15.146148187269574 13.69819684921999 -1 -1 0
3962 1 0.5045049902751509 14.4254563330305 13.6359102954697 0 0 0
3564 1 -0.2513489391398136 14.497253289667384 12.942071326310636 0 0 0
3207 1 1.9353560742193041 -0.29409749844665634 12.882635874749035 0 0 0
3568 1 1.252976862863751 14.474909932052402 12.929781084978696 0 0 0
3609 1 2.787934027285548 -0.22819188818354275 13.668557049458723 0 0 0
3572 1 2.655519386415841 14.546235371231568 12.868245927983594 0 0 0
3970 1 3.489794848955371 14.511475933280668 13.506549296394034 0 0 0
3613 1 4.296452914292945 15.250772261236545 13.649456681159496 0 -1 0
3576 1 4.388255327866163 14.54816246888985 12.868339061239638 0 0 0
3974 1 5.060425843319059 14.509568188971503 13.615086983594026 0 0 0
3580 1 5.869823356555886 14.441042353656854 12.930406792331315 0 0 0
3978 1 6.641426724806966 14.573300739011277 13.739069831441356 0 0 0
3584 1 7.355015431500342 14.452315653686142 12.977331410198687 0 0 0
3982 1 8.11300873600684 14.529483896019528 13.669015179789294 0 0 0
3588 1 8.934000410314155 14.537160317380746 12.946182382555278 0 0 0
3625 1 9.075859314205797 -0.2798970157703906 13.627867354102303 0 0 0
3227 1 9.904536117491006 15.202990088387232 12.931564421596228 0 -1 0
3592 1 10.651293706787246 14.565086441088937 12.903461559686942 0 0 0
3986 1 9.812766036793459 14.422961357072015 13.65597316051404 0 0 0
3633 1 12.188305398316256 15.147493585860758 13.768751517185201 0 -1 0
3231 1 11.492836865874338 -0.29352524411450454 12.851455259688503 0 0 0
3596 1 12.237029911106895 14.447770708137835 12.858394865001742 0 0 0
3990 1 11.25245955684013 14.49651754562586 13.799453465191245 0 0 0
3235 1 12.982969993028806 -0.25146344863984654 12.946675999541114 0 0 0
3600 1 13.702031330065338 14.430020573554405 12.969517099109996 0 0 0
3994 1 12.857858306930169 14.353757762399415 13.791131993727557 0 0 0
3239 1 14.354928573736444 -0.23582136664555964 12.960457232832834 0 0 0
3604 1 -0.30609910492563785 0.5270789196212603 14.370619976811835 0 0 0
3603 1 0.48409967243567653 15.22978254685422 14.429056077786232 0 -1 0
3608 1 1.2417247748056413 0.45433690333879095 14.375344965321226 0 0 0
5 1 1.218469299345431 -0.3113639599138942 -0.2687778817523878 0 0 0
3607 1 2.094390698298593 15.221028441318253 14.429092962362727 0 -1 0
3612 1 2.6608538320057566 0.5160980435101087 14.448374954136476 0 0 0
3616 1 4.385871642570187 0.4410382886100299 14.399356323790883 0 0 0
3615 1 4.983207756482621 15.143300250204447 14.441961340205808 0 -1 0
3617 1 5.831895226859507 -0.30216981023176015 13.643333058187451 0 0 0
3620 1 5.887181965256141 0.43944168138330275 14.451669594363022 0 0 0
18 1 6.705010984207119 0.3849999781770477 -0.31248573824338377 0 0 0
3624 1 7.497336951733301 0.5113273025849697 14.507216557332853 0 0 0
22 1 8.36228054207509 0.5916526478093874 -0.27420615600768944 0 0 0
3628 1 9.087634393358368 0.4639992317798626 14.378309501197588 0 0 0
3632 1 10.639042400274143 0.516642296537888 14.444197920786372 0 0 0
3636 1 12.063721676028447 0.38320855768747253 14.327483885841374 0 0 0
34 1 13.024200897020673 0.45918106103364 -0.27043381690662777 0 0 0
3640 1 13.732143837100026 0.5397150747890848 14.505073404228373 0 0 0
3639 1 14.416197402747262 15.242031636132737 14.45845927063851 0 -1 0
42 1 0.4950644822033087 2.067805617435372 15.181684393324002 0 0 -1
3643 1 0.3561109991032223 1.2609180296087559 14.459575053767285 0 0 0
3644 1 15.236874533597575 2.1218690631353554 14.501695067864073 -1 0 0
3647 1 1.9101286914755202 1.3378432622860739 14.464250669100782 0 0 0
3648 1 1.2100447536293826 2.0020898519930324 14.383343841647104 0 0 0
3651 1 3.6018999797150317 1.2250005968349527 14.459014015944575 0 0 0
3652 1 2.8719089163153804 2.035434128161071 14.403929904854632 0 0 0
53 1 4.3618603016347075 1.2193278937512146 15.20805288503568 0 0 -1
3653 1 4.368179211468653 1.3613659524004225 13.700233228812348 0 0 0
3655 1 5.057807133710216 1.1387320874361533 14.384019343792861 0 0 0
3656 1 4.387377645572616 2.10765317447876 14.38263009321761 0 0 0
57 1 5.765234247352355 1.154678002872159 15.249296695279668 0 0 -1
3660 1 5.884990458409881 1.9414698479761938 14.547938486418559 0 0 0
3659 1 6.755461918959079 1.1615414166237747 14.552328989945995 0 0 0
58 1 6.660243631355042 1.9371308791522397 -0.29336674641756616 0 0 0
61 1 7.4990438753542685 1.3709619814215241 -0.29417366677386314 0 0 0
3664 1 7.477235125709648 2.011902021391943 14.461331557407227 0 0 0
3663 1 8.225544794717877 1.2748442133943625 14.521802022542087 0 0 0
3668 1 9.072742728449292 2.0660829518096677 14.508694858445484 0 0 0
3667 1 9.822145751353158 1.3285614239713572 14.444583815437213 0 0 0
3672 1 10.534607676394252 2.0728414027048636 14.460735189369636 0 0 0
73 1 12.19416992023594 1.2647460564538617 -0.30020801315617474 0 0 0
3671 1 11.3641940171138 1.3031320053036568 14.470793365451094 0 0 0
3676 1 12.144588033465396 2.0729215026663295 14.481139311008835 0 0 0
3675 1 12.929296984561212 1.2579121184609354 14.480267380416947 0 0 0
3680 1 13.692152332904694 2.057754962999323 14.470740394006153 0 0 0
3679 1 14.511376835169237 1.2813665922793216 14.399747459387367 0 0 0
3683 1 0.4921843706657941 2.7897243972208163 14.428291262855922 0 0 0
81 1 -0.297723873055741 2.895455165033136 15.091577184925768 0 0 -1
3688 1 1.3036741903674667 3.5500246676077634 14.56675906096169 0 0 0
3687 1 2.0203531159344785 2.7389063939109137 14.508021592306637 0 0 0
3691 1 3.652415439019554 2.783334186548893 14.433474304225893 0 0 0
3692 1 2.8118024323566186 3.4955033610751425 14.520641406136544 0 0 0
3696 1 4.332864846050126 3.4647648122181876 14.376984944034817 0 0 0
3695 1 5.19679636771246 2.7286101669092226 14.433547171050748 0 0 0
3700 1 5.9558496052325545 3.4646794409037396 14.605917117794586 0 0 0
3699 1 6.70128657945228 2.688580938791183 14.51657690728928 0 0 0
3704 1 7.373842480637264 3.5458493342416695 14.479566242719915 0 0 0
3703 1 8.306022347818836 2.8278706176412487 14.512776936062398 0 0 0
3708 1 8.974232082218748 3.587101004196136 14.410363047800274 0 0 0
106 1 9.789129780736324 3.5604502914006133 15.219327333092682 0 0 -1
109 1 10.617092270579604 2.7632806662652727 15.240821861687298 0 0 -1
3707 1 9.77194267185164 2.7681350608793953 14.4540166432365 0 0 0
3712 1 10.622697742859362 3.573112157879437 14.451400408266771 0 0 0
113 1 12.195890261851002 2.9521097351578733 -0.2544512387885694 0 0 0
110 1 11.31532477720151 3.581240364316972 -0.2637095669505833 0 0 0
3711 1 11.449908149582939 2.7881195636955387 14.615912183102491 0 0 0
3716 1 12.2447115494952 3.5677488032431692 14.406216369829078 0 0 0
117 1 13.649426812079678 2.8568515962160506 -0.30276237395579453 0 0 0
3715 1 12.938271521583975 2.743121660467989 14.482199672284281 0 0 0
3720 1 13.670346374715503 3.6326817458470106 14.614893571889105 0 0 0
3684 1 -0.2419875690601879 3.6933943678675254 14.445085184489308 0 0 0
3719 1 14.378238274540664 2.713039078880031 14.520829789071513 0 0 0
3722 1 0.4583756041164323 5.099359416566849 13.776455343359686 0 0 0
3723 1 0.5257138161091477 4.404996662703668 14.630727105111859 0 0 0
3728 1 1.3208152192234837 5.077887913627536 14.575499912664593 0 0 0
3727 1 2.047919268841298 4.315813104052148 14.524439125898226 0 0 0
130 1 3.5802794583293394 5.061076681002153 15.212163547421035 0 0 -1
3731 1 3.570061120799545 4.2617244760479265 14.346043310563324 0 0 0
3732 1 2.9260973718318306 5.074873203338835 14.363155284813235 0 0 0
3735 1 5.162272350248745 4.3836583881739095 14.418049418248813 0 0 0
3736 1 4.42052568218823 5.125817061418471 14.452982528116731 0 0 0
137 1 5.918397000662199 4.3833471641104 15.231966635370643 0 0 -1
3740 1 5.899044643575178 5.083037549897853 14.488484521718302 0 0 0
138 1 6.702923107662832 5.033441445897099 -0.26790305339912346 0 0 0
3739 1 6.667258371621711 4.283602982129177 14.445763526268138 0 0 0
3744 1 7.495189991614469 5.068939645218244 14.416632704716005 0 0 0
142 1 8.114943679329464 5.103482495941722 15.216345142360346 0 0 -1
145 1 8.900355187807008 4.222955729531728 -0.2850418758878017 0 0 0
3743 1 8.228390641616144 4.406018137133137 14.4699999785404 0 0 0
3748 1 8.993800635057642 5.1357339826414306 14.482536626491527 0 0 0
149 1 10.605385968481588 4.29024461417726 -0.2574391967381886 0 0 0
146 1 9.771040954041105 4.9707416104746756 -0.29830571587285293 0 0 0
3747 1 9.737814375373752 4.296593733105854 14.389957629253548 0 0 0
3752 1 10.55283079916035 5.11410994858106 14.50565813259374 0 0 0
153 1 12.103007695100406 4.294474819260333 -0.3026665657499805 0 0 0
150 1 11.306696194312185 5.136803800436055 -0.30786959241841316 0 0 0
3751 1 11.330969920923778 4.2968921871189325 14.541720699366177 0 0 0
3756 1 12.16932164632875 5.145599480551587 14.482279889022088 0 0 0
157 1 13.777440740523637 4.503837285979341 15.251578436910401 0 0 -1
3755 1 12.838933664035675 4.308988226716918 14.502275083171007 0 0 0
3760 1 13.723653976773896 5.108168266062151 14.497117383168998 0 0 0
3724 1 -0.2625026180099229 5.12404972320206 14.489534191068326 0 0 0
3759 1 14.532755356870709 4.4180188132351015 14.480215726901616 0 0 0
3763 1 0.49224156283351406 5.925627003100861 14.640672271769382 0 0 0
165 1 1.389271462308585 6.015727203030711 -0.3134593558244525 0 0 0
166 1 2.02780234838358 6.783598365287231 15.220982022223605 0 0 -1
3767 1 2.171080656462872 6.035658208141599 14.567721859342786 0 0 0
169 1 2.8953814465926175 5.9151342344692885 -0.2318042311911769 0 0 0
3771 1 3.5520566400985634 5.966853442424087 14.42928893146205 0 0 0
3772 1 2.828354798389635 6.8659231693631035 14.466978564694486 0 0 0
173 1 4.324139660406151 5.871755939130851 15.207519405843172 0 0 -1
3775 1 5.192081103802967 5.838491591239863 14.496125333470747 0 0 0
3776 1 4.3153130022425925 6.789720449347661 14.533954231618385 0 0 0
178 1 6.6834066693289875 6.625792077775993 -0.16800245915216344 0 0 0
177 1 5.856556348672475 5.784807819327327 -0.2944368899335279 0 0 0
3780 1 5.955984048556125 6.589164259678396 14.497519387533345 0 0 0
3779 1 6.69533284021407 5.806198600370752 14.47624956344196 0 0 0
181 1 7.428885368034189 5.818479189857397 -0.30167809563512205 0 0 0
3784 1 7.429763106080666 6.7412138263906884 14.49670310884379 0 0 0
182 1 8.112745478957397 6.5692456650837 -0.27406746435497287 0 0 0
3783 1 8.226239942545998 5.9598333320663945 14.413011580706577 0 0 0
3788 1 8.861121885538807 6.750413981709774 14.462357105790144 0 0 0
189 1 10.58473234314014 5.833311248504062 15.186000154103258 0 0 -1
3787 1 9.779894871750258 5.939467942658602 14.447017275287628 0 0 0
3792 1 10.668716056496564 6.725329099552884 14.458593710176117 0 0 0
3791 1 11.436386044145532 5.923280600261508 14.402510746998388 0 0 0
3796 1 12.125743750925238 6.685570382448451 14.43655932847011 0 0 0
3797 1 13.778094173768693 5.8684429406064496 13.713457772693474 0 0 0
3795 1 12.885226381372739 6.026071050331002 14.499732770707237 0 0 0
3800 1 13.705696211076788 6.674019376244569 14.513276496543348 0 0 0
3799 1 14.4973186540835 5.850806695355084 14.351385764255152 0 0 0
3803 1 0.41627830940179755 7.520194970914318 14.405721479831417 0 0 0
3768 1 1.25270211644506 6.936525806998417 14.546919353616282 0 0 0
3807 1 2.1138913010323668 7.543140327252015 14.513653845336489 0 0 0
3811 1 3.6717058075826996 7.573021082179433 14.621715162147773 0 0 0
3812 1 2.9887396887945568 8.199018653606558 14.504396583649271 0 0 0
174 1 5.170045291821038 6.65145697941785 15.20876369816678 0 0 -1
3815 1 5.169924884572512 7.44753649984102 14.571923816158911 0 0 0
3819 1 6.669150461084483 7.536473897218548 14.483787712921082 0 0 0
221 1 7.492532999295547 7.392388356203887 -0.3073205514877451 0 0 0
225 1 8.910409835239701 7.525703079134159 -0.2902478892010415 0 0 0
3823 1 8.167233452059723 7.473114127276664 14.531442284689195 0 0 0
226 1 9.798692448941427 8.212506013184704 -0.23694692826144234 0 0 0
3827 1 9.736063177889676 7.540508042993977 14.618519861651304 0 0 0
3832 1 10.526944099407665 8.290892474203869 14.546311905930104 0 0 0
3831 1 11.34156546189843 7.489933395333241 14.436969190634645 0 0 0
3836 1 12.255909530126473 8.235190720254973 14.580614243794148 0 0 0
3835 1 12.983302259064619 7.43424278523428 14.385573692747862 0 0 0
198 1 14.56357609761444 6.581039809299099 -0.26103070974701115 0 0 0
3764 1 15.249126211139984 6.607401807493371 14.519864944099648 -1 0 0
3839 1 14.486663356098486 7.519016774607382 14.48240809338569 0 0 0
3843 1 0.3413744680754749 8.992451656424436 14.496157156133673 0 0 0
3804 1 15.22256946896237 8.243287045703696 14.531883214925706 -1 0 0
3808 1 1.3689982315089029 8.195575630475275 14.534585850125818 0 0 0
3847 1 2.0775367925464816 9.105969670329376 14.442896895909449 0 0 0
249 1 2.7418661370120296 9.181864683737402 15.20075535915915 0 0 -1
3851 1 3.6262713329937273 9.040945508439439 14.528459843197847 0 0 0
3816 1 4.413104075878028 8.229609099753464 14.532410334468768 0 0 0
214 1 5.124014307164795 8.1268467679594 -0.19000929459117405 0 0 0
3855 1 5.159757590738246 9.039804491330003 14.536383742628136 0 0 0
3820 1 6.022162338401227 8.247398767407894 14.484690481990253 0 0 0
3859 1 6.644913537219423 9.036860461262478 14.485393543607259 0 0 0
3824 1 7.398274321588395 8.16743586659502 14.485478286271736 0 0 0
222 1 8.182703886770668 8.222876600153228 -0.30026988711585645 0 0 0
3828 1 9.009484022712268 8.29956233517521 14.626238781574255 0 0 0
265 1 8.843796461725535 9.08076006021319 -0.2412078855951455 0 0 0
3863 1 8.041416364812385 9.045044661106214 14.671601107960669 0 0 0
269 1 10.590188018193452 9.061226306800812 -0.2748990693730188 0 0 0
3867 1 9.816215206366564 9.055074286860009 14.584998975354772 0 0 0
273 1 12.12227857086992 9.109711606933857 -0.20811292206716947 0 0 0
230 1 11.474393782868372 8.274633621288896 15.24596699862483 0 0 -1
3871 1 11.408240406351371 9.021966357638156 14.537396754738072 0 0 0
277 1 13.616930853268034 9.063864423402503 -0.24550098915970664 0 0 0
3840 1 13.724298772186192 8.280086277215528 14.43874105092106 0 0 0
3875 1 12.969608379115854 9.081483527940943 14.558477937481609 0 0 0
3879 1 14.4487186927206 9.080172002445302 14.68186785237668 0 0 0
3883 1 0.4036731677618063 10.51111414358228 14.43439635044686 0 0 0
246 1 2.041713246300462 9.826127333483075 -0.25566627975834855 0 0 0
285 1 1.2738435433526836 10.48603191871814 -0.2953020803971782 0 0 0
3848 1 1.2250698471988253 9.821986666930293 14.377919936607995 0 0 0
3887 1 2.0920346010870112 10.628779791538122 14.451837848840885 0 0 0
250 1 3.6630730450070628 9.787733938714318 -0.3060966850261769 0 0 0
3852 1 2.894879922377456 9.856465846449947 14.539594346128265 0 0 0
3891 1 3.6016956729130776 10.695914547488862 14.566995983712129 0 0 0
293 1 4.393408364003608 10.610721818608255 -0.29466542534463697 0 0 0
254 1 5.157777656280639 9.852451566524117 -0.23734936555942993 0 0 0
3856 1 4.437037222605692 9.836173151822049 14.592597125162303 0 0 0
3895 1 5.142910054042727 10.627712379701237 14.528105440015171 0 0 0
3860 1 5.86839573639393 9.863295253213984 14.513443382406663 0 0 0
3899 1 6.654303023477218 10.630868815759438 14.477097615523416 0 0 0
3864 1 7.344589977588457 9.839973891257227 14.566439394736719 0 0 0
305 1 9.024668629943836 10.724576512203623 15.156389025797733 0 0 -1
3903 1 8.176057950007497 10.54067731732081 14.426319877082172 0 0 0
3868 1 8.99446761470196 9.705299938627949 14.423795323614808 0 0 0
309 1 10.454511306518828 10.611953401250435 15.247267611928482 0 0 -1
266 1 9.718316590041432 9.933681656086645 15.224906893798696 0 0 -1
3872 1 10.507277861459105 9.827107633908852 14.483472259293276 0 0 0
3907 1 9.759464995583986 10.759131755044166 14.434716139412828 0 0 0
313 1 12.159341882466027 10.662754982647993 -0.25939462162933175 0 0 0
270 1 11.308551265677256 9.853658336596158 -0.30079281849180367 0 0 0
3876 1 12.166342062966166 9.871357843779975 14.528252535597542 0 0 0
3911 1 11.34907305424451 10.734229092253663 14.510209956626937 0 0 0
274 1 12.903445770527306 9.928333077636616 15.247922621310565 0 0 -1
317 1 13.627360918437489 10.733012250870726 15.241170161980188 0 0 -1
3915 1 12.88259268474862 10.668841722177053 14.478358878606372 0 0 0
3880 1 13.595672713984527 9.925933131886968 14.457687073907117 0 0 0
3844 1 15.219211529939148 9.777361182733063 14.31651847666063 -1 0 0
3919 1 14.482340691349147 10.51143116594876 14.441572622496253 0 0 0
282 1 0.5303658408288181 11.254841696411006 -0.25756677861145033 0 0 0
3923 1 0.6433798582058081 11.976685805373677 14.45399818702861 0 0 0
286 1 2.0339569188380775 11.305127165016788 -0.31394641510719384 0 0 0
325 1 1.316107612786491 12.030689074890319 15.196694956784409 0 0 -1
3888 1 1.2184543409129338 11.118809738167549 14.501025710676242 0 0 0
3927 1 2.0196877568359395 12.143038474898685 14.385454556711569 0 0 0
329 1 2.798645826855021 12.10764529504796 -0.23732773482639452 0 0 0
3892 1 2.8503700050208796 11.444266136294356 14.547501318579393 0 0 0
3931 1 3.5377264106406217 12.115774455754053 14.381817474678204 0 0 0
333 1 4.387010190427 12.259856785612396 15.23047992362794 0 0 -1
294 1 5.127481048441079 11.432938310483557 -0.2872114277043316 0 0 0
3896 1 4.376604531852992 11.528688724791984 14.469975924321378 0 0 0
3935 1 5.138763151685524 12.084713784328116 14.508342299948485 0 0 0
298 1 6.762003270887835 11.395527331589147 15.252120965799001 0 0 -1
337 1 5.921000132351251 12.18696296448719 15.19094323170346 0 0 -1
3900 1 6.066029836737828 11.440594614055072 14.514323386748817 0 0 0
3939 1 6.788796511316619 12.25666732803576 14.467540249364664 0 0 0
341 1 7.538993323961178 12.177821872635644 15.187888660896629 0 0 -1
3904 1 7.473276582818253 11.389881819505167 14.410565967145207 0 0 0
3943 1 8.238042004329145 12.159545552346938 14.492211834820399 0 0 0
345 1 9.010568239274686 12.16435885836071 15.232430867043028 0 0 -1
3908 1 8.932364312456258 11.436671258534513 14.413794057357265 0 0 0
306 1 9.774513970171025 11.502533573131554 15.147694761226369 0 0 -1
349 1 10.730743641047763 12.133836578207806 15.122677841365903 0 0 -1
3947 1 9.691936911671363 12.149629202298204 14.343503144680561 0 0 0
3912 1 10.582853642954586 11.407404465399559 14.379386658409906 0 0 0
353 1 12.048734397610513 12.19091301025718 15.15581411451555 0 0 -1
310 1 11.331032629850021 11.364298485865667 -0.27144421177714056 0 0 0
3916 1 12.15722650107822 11.437867298570769 14.488775345529437 0 0 0
3951 1 11.402439586582972 12.046117136664805 14.342004453180056 0 0 0
3955 1 12.901162749163223 12.340452055773671 14.315712373960295 0 0 0
3920 1 13.494926515208608 11.478929084397109 14.49427467038797 0 0 0
3884 1 -0.2586068806645647 11.350107378699242 14.504871724446378 0 0 0
318 1 14.55624285061575 11.42714537313686 15.152025540738443 0 0 -1
3959 1 14.494556393842153 12.118384512806596 14.484046316837766 0 0 0
3961 1 -0.21600690274830517 13.638526231995662 13.779927082645063 0 0 0
3963 1 0.5892691136090867 13.79991300872014 14.507880742162953 0 0 0
3924 1 0.04148146468485897 12.91333207937775 14.460259642990817 0 0 0
3965 1 1.3828417138781546 13.665280806589198 13.621601177945166 0 0 0
365 1 1.3166994138226937 13.649113214368818 -0.22379650827729414 0 0 0
3928 1 1.273689730695042 12.874075094170102 14.46110388518479 0 0 0
3967 1 1.9837454891557194 13.704802108815368 14.43484234865096 0 0 0
3932 1 2.832122921229891 12.810270626432416 14.511929391025237 0 0 0
3971 1 3.5314448672485557 13.738635894570209 14.508555286674 0 0 0
373 1 4.241612527986793 13.787196187981053 -0.2732149151873686 0 0 0
3936 1 4.272757491281515 12.953236896536499 14.517258210142206 0 0 0
3975 1 5.045444407467873 13.773010161364144 14.585767231473614 0 0 0
377 1 5.9115248818541675 13.675765427712314 -0.14288784817310493 0 0 0
3940 1 5.729956672688324 12.958308183148745 14.546378649636743 0 0 0
3979 1 6.616100077764107 13.844014734640531 14.651374513287266 0 0 0
3944 1 7.471183239419758 12.939561306393607 14.37211052726363 0 0 0
342 1 8.288526452096757 12.848229889104335 -0.24293040760247578 0 0 0
3983 1 8.234141381337643 13.65648994264216 14.489832136611533 0 0 0
3948 1 9.010189658741186 12.874091540223159 14.461653313108524 0 0 0
346 1 9.832202064164186 12.840606135628956 15.117173477089576 0 0 -1
3952 1 10.592860193433896 12.854306778577271 14.395792913606627 0 0 0
3987 1 9.85951984252268 13.788768865744277 14.36316642159644 0 0 0
3956 1 12.01423037670861 12.845972206405438 14.337311028263553 0 0 0
3991 1 11.341531275481596 13.659305130734161 14.369514338610895 0 0 0
3960 1 13.713009194889999 12.977147249628906 14.497048355710376 0 0 0
3995 1 12.85617574141147 13.633119182126851 14.514140321690661 0 0 0
358 1 14.52851119715012 12.840754275821865 15.166939250090952 0 0 -1
3999 1 14.46108141422599 13.76716494934199 14.521853547829725 0 0 0
3964 1 -0.222045048606197 14.477808987890622 14.479744855331568 0 0 0
3966 1 1.975320381479443 14.516132762480225 13.707941369335487 0 0 0
3968 1 1.296132528106263 14.495368069687576 14.557669492780306 0 0 0
3611 1 3.4881130519817884 -0.3128544339700383 14.435152003680091 0 0 0
3972 1 2.8664742351154855 14.503744278644405 14.384020989300144 0 0 0
374 1 5.081336175035902 14.489273019902548 15.206830349580674 0 0 -1
3976 1 4.198903368221538 14.525306361026516 14.329317714733556 0 0 0
17 1 5.805131212082295 -0.27465936927395246 -0.3129998754855521 0 0 0
3619 1 6.701902698144511 15.250382017828112 14.533761197555055 0 -1 0
3980 1 5.8666652569132705 14.514260420742389 14.538127828259466 0 0 0
21 1 7.534432250306831 15.093474574393024 15.249648211721963 0 -1 -1
3984 1 7.626593158281841 14.50656195295139 14.55192691351246 0 0 0
25 1 8.952725871125136 -0.14269412229956804 15.179425047923267 0 0 -1
382 1 8.326297088239883 14.433132686081304 -0.22397560507371822 0 0 0
3623 1 8.178723520584203 -0.20044298197883403 14.556921968167345 0 0 0
3988 1 8.944594183998536 14.583456874940893 14.350164036298526 0 0 0
3627 1 9.895826891378274 -0.16291856585374762 14.542139780572953 0 0 0
3992 1 10.510055932400725 14.510430584707251 14.470404377681074 0 0 0
33 1 12.229494491905633 15.203899119517708 15.20059735517831 0 -1 -1
3631 1 11.331732985500686 15.251626868891755 14.45574421724897 0 -1 0
3996 1 12.049724137146459 14.364735386426172 14.488764256913264 0 0 0
394 1 12.9481062937589 14.462520500961421 15.150258381445244 0 0 -1
3635 1 12.99731891080566 -0.29401596025726207 14.433408037326664 0 0 0
4000 1 13.690509373619513 14.488628820601857 14.425733955362649 0 0 0
398 1 14.604364058645483 14.43851314723354 15.184974714408167 0 0 -1
3998 1 14.47321516600337 14.498668616523013 13.787197085241921 0 0 0

Velocities

8 0.2812416473665258 -0.4824731991626223 -0.6254019491297428
4 -0.9496737222793946 -0.48842538308210204 0.4597081668767151
2 -1.7077406826134869 -0.4524948524607187 -1.3703066784508546
7 -0.11208063119585976 0.9237144910579871 -0.6810553319342102
6 0.10393601016123152 0.34703021630562886 -0.5871953567281141
12 0.5165723467877468 1.1463424487893545 -1.4611567117788038
10 0.844403724287124 0.8142949591469675 3.3625841779913372
16 -0.2112724079685022 -2.244711778871069 0.010274224699729455
14 0.44733501783453034 0.47977633651550955 0.6033355189663295
15 0.713383040947714 -0.5939259059942307 -0.48352694566566506
20 -0.6433571082165834 -0.2269040743101139 -0.7397260069007908
19 -0.013985602526302121 0.9138981661664941 2.3650382792544513
24 -0.18192574010321622 -0.8873878108106453 0.9840585716150171
28 -1.205690227631971 -0.7982054375572788 -0.4300757940698161
32 0.5596123187951224 -0.1310497180231727 0.3310852376344619
26 -0.3889323364640294 -0.5397274393737127 -0.9573776506485903
67 -1.6912248156820602 1.1711380865065186 -0.7972650612966335
36 0.8245584261113433 -0.4119766053664224 -0.8330775565082525
30 -0.2118454438141882 0.055881933617245604 1.371153062991795
40 -1.0389217546303113 0.3465765915583083 0.33604515075052344
39 1.1509834451860823 0.23616208163200755 -0.8059696044877632
38 -2.306742973718112 0.8868052183114131 2.542074190819394
43 0.20153617352370298 1.272382752398694 -0.992450108239019
45 0.07186120754937346 -2.1779457321726774 -0.45766889247380704
47 0.7195997865841135 -0.5177769405022894 -0.2509052903657563
48 0.5324874720177509 0.30958973627031217 0.649687400834717
46 -1.2491906605298038 0.09608107918470161 -1.332948048551964
51 -0.8769215168183834 -0.9845004994153956 0.5744230773342041
52 -0.051660210254667285 -0.1561728250135177 0.3587813279522929
50 -0.3885712570801005 1.1131868146626858 1.359837782460278
49 -0.4632763926201109 1.2620317276463298 0.7044452638041443
55 -0.80166350124123 1.3291592700690078 -0.9121376602978976
56 -0.3778694004921535 1.5986387950558993 -0.012841529763852633
54 -2.0575126610618772 0.10767330057361044 0.3610654988140737
60 -1.0197727842106292 -0.10176589545841722 1.1653689843269386
59 -0.38810611190569033 0.915100627126066 0.41345093792542076
64 -0.308795167311679 -0.1727767714023107 -0.8814821415331924
63 2.691832097582594 -0.03446124363318246 0.4704137699386809
68 -0.30058070015210575 0.6702484746515186 -0.7370023650254598
65 0.22500973620987677 -0.043123618882749216 -0.7502956993021054
62 -0.8103356564097534 -0.0766357591753605 -0.11360020372027861
72 0.6948305500878978 -2.534195862428603 -0.8278976124013477
69 0.8778102149964576 1.7200846174743627 0.7238874554749936
66 0.2331715422125858 -1.0368560759465122 2.113263155755343
71 0.8069826302921312 -0.5364035521455557 -1.1902656413245418
76 -0.04347918673169872 -0.8865059225240616 1.992997257963229
70 -0.9041584087742395 0.25950334936098435 0.21460606933087908
75 0.6053801568009352 -0.034940470179571526 1.0965749222919998
80 0.9559872994395111 0.3945593910192323 0.3571234123582214
77 0.02515908797802574 -0.6827437421235664 1.7984476167179877
74 -0.5929987687934246 0.11419268344479215 -0.7169942907867128
44 0.4857768330641315 -1.400281396055322 0.9135299109158574
79 0.0390633120408382 -0.7551201741630018 1.0940990247309812
41 1.614783763464198 -0.3231287907882494 -1.5018889781714984
78 0.39868263780713836 -0.7285074394657624 0.14044047874081328
83 0.4321215169612595 -1.87145749494512 -0.3611893182992517
481 0.28969063934804634 1.1647731362404152 -1.3818971569281773
82 1.4713453343497662 -0.8263263372336127 0.8369007556286532
88 0.2651249643324232 -0.2207125384399934 -0.5084878554023449
87 -0.9302662355440201 0.559621556363125 -0.8008578019084538
86 -1.5804515508082437 0.04836566250122737 0.31092833554899874
85 -0.05039712874322499 -0.6935530519992652 0.044577549135455634
91 1.0461538180798067 -0.6492065450471531 -0.2134905524744496
92 -0.5769007200815968 1.7403173224012163 0.5510005320818835
90 0.09123643339965454 -1.073204662441015 -0.36442686788009737
89 0.5851833356353319 0.7045171918944926 1.6271999747203842
96 1.0051708882082915 -0.8651400610079697 -0.4706599101028253
95 -1.2689072805111885 -0.5400016664553902 -0.03684695006261879
93 0.8141578337511626 -0.5594233967607815 -0.3577269482552651
94 0.05938737466068664 2.359052443950161 0.7519733468798169
100 0.6925321810692391 0.4593957467357833 -0.12985202847229693
98 0.46490881306070414 -0.12085497520022337 1.3880402441044122
97 0.267124447676049 1.7149218703929738 -0.8182669449836237
99 0.6102232350192666 -0.25205059325646234 0.6878347383904371
104 0.186901262198866 -0.016063346044285727 -0.016857448452323245
101 -0.20987472948168623 0.47463248827445664 1.2326083590269963
103 -0.30044119499167693 1.1320589775476415 -1.2680344808229171
108 -0.5004110910970294 -1.0373161533783242 -0.295007335657541
102 0.7892943577270214 -1.5484401403945989 0.45822074003221724
105 -0.23675341838161723 -0.010470993815341292 -0.7633226803672442
107 0.8128167936549205 1.2036066241160785 -0.3044477438916615
112 0.8278062900388038 0.9158847323530024 0.19983963512759606
111 -0.1785033965476502 0.04857554841276634 0.5272832624558846
116 0.2338028834223182 0.8280764575483068 -0.5116284135176176
115 -0.17637741870519782 -0.9203528638543806 -0.6503824134344746
120 -1.036009620870749 -0.2744940085681136 -1.3922915354394116
114 0.6483190293296058 0.4630420454204484 1.0276174400449263
84 0.4794260919401152 -0.04811133431049076 -0.5972358249200054
119 0.5496733874609848 -0.26646637748263036 2.7746060072144076
118 -0.12917472773651825 1.9478361070315813 -0.5437123354845158
123 0.2501601403618588 -0.041428543618488474 -1.5309640292393658
124 0.54813225265901 0.3054913067172789 -1.2902162525650274
122 -1.3341979809512048 0.02203366890836242 -0.8848392575904426
121 0.9277193792616938 3.4776977302221153 1.347270598301264
128 -0.33284875343606973 -1.1358149656221692 1.4130491924298034
127 1.2227670564241995 -0.7635581554850253 -0.5357061210986894
126 -0.2592889917762476 -0.1751237037607137 -0.015389398289226556
125 1.8052107125117574 0.11309726540911262 2.118272103978779
131 -0.5122720935074677 1.555845562818412 -1.5404525768210042
132 -0.8042110915837449 -1.2217313698863663 1.823901383717535
129 -0.19731641611251596 -0.2737163356192444 0.745554958166171
136 -0.6929233642699235 -0.39311541069523653 1.7151584540873384
135 1.5185750794726565 -0.43897632953718246 -0.8899781085386095
133 -0.3399083979465367 0.24486133771854185 0.7516733267816389
134 0.5027471765330451 -0.7581138461834256 -0.19469633172164558
140 -1.7848591695654754 0.36198547063136666 0.10640579023274979
139 -0.5466235064794897 0.5680681130797609 -0.8192101735734562
144 -1.1043273907230797 -0.4062682718271449 0.6385337950731602
141 0.10626907399029856 0.8318337860441788 -0.08952240423912305
143 0.9671671225796267 0.9163294638866535 -1.346347379605629
148 -0.2526092249015498 0.24058560418310818 -0.8348529271611739
147 0.0238527172369845 1.7971786535671292 0.7846700349267294
152 0.9733207548882185 -0.5320279825359255 1.5302518512722958
151 1.3812092545046697 0.3346528460620693 -0.991830905811982
156 0.12537478570901214 -0.4598463154939944 -0.7835217190623983
155 1.1559503494293077 -0.6041531959909597 -0.5142663627556897
154 -0.9747792250513573 -0.4079504696743239 -0.5827688320572975
160 0.7945918378879671 -1.3128754090349823 -1.4555811261478415
159 0.6073785534138701 0.6187590387781716 -1.0241160009009551
158 0.9510145910173267 1.3379806196830162 -1.2829813619138302
163 1.1555848006755451 1.7677931807431475 -0.6920559207555319
164 0.3443994349953904 1.3028092066886354 -0.6239953733712575
162 0.662491102979515 -0.15726361551363885 -0.28450868961176873
161 -1.4038609769752084 1.5965357971178813 -0.7033395728923282
167 0.4638486810077223 -0.800482913738285 0.6840817656889845
168 0.011105917799893134 0.5291136978720622 -0.16137858702325802
171 -0.594984231328878 0.2824972476852977 0.5673783023923549
172 0.7890841912283691 0.9427440196464731 -0.34707387630556924
170 1.188682226592336 -1.1352785723013255 -0.9375035160557911
175 -1.6255859899581886 2.1824041471278903 0.5172917489899562
176 1.1310690849726612 -0.10265738693336696 0.7562498254952794
180 0.5586503944089027 -0.7238981775578122 -0.028294975687353938
179 2.196820946388953 0.581589293129127 -0.5204505033564425
184 -0.47456291191090844 -0.31590398597653724 2.2567562584665746
183 -0.3331162282630609 0.024377110564228453 -0.7691723599292709
188 0.39915687463635446 -0.46273406534627315 -0.21145636924488495
185 -0.49138929758092725 1.6262170798947788 0.5625765649530847
187 0.14354308124929346 -0.4115617801538538 -1.020657157764574
192 0.1970185590907014 0.9221483295054521 -0.4347833907493421
186 -1.167418980878517 1.4430631186555944 1.7595135486618902
191 -0.09771048610933497 1.6214342703284792 2.4205051680106133
193 -0.3099128137210664 -0.24632394056306375 -1.0343232644569829
190 -1.0763922173496747 1.7683973840281824 -0.26870721240602646
593 -1.2624099369768755 -1.2132467607199289 0.5813139279329688
195 -0.7291255705077939 1.3664293002647234 -1.2072063156900978
197 -0.28636119688049483 -0.3679242767719537 0.29745135530244055
199 -0.20920259455160858 1.1568180484494097 -0.31999884469272377
598 -0.5557170386294639 -0.8059663784626774 -2.859194502949737
203 1.2135100661488503 0.5131403332776276 0.8968565551467859
201 0.3666417449180405 0.2661970265072533 -0.7880033413751693
207 0.6573717226518238 -1.0351343801276482 1.0893832223940831
208 0.34286131254761243 -0.48268492662721596 -0.18840693074193193
205 0.18219330092961336 0.9769117929914879 0.5556543992883296
211 -0.3558494296762543 -1.4828202477231145 -0.4149378824209799
209 -0.4268678721174125 -0.3876406708282184 -2.6485963701069712
215 -1.2367502051776738 -0.36462728154625457 1.2196897259331831
213 1.4748105837028773 -0.3221239548962591 0.03778243661508649
217 2.113850925926979 -0.40395515443642915 0.22488515900451023
578 -0.4676171240299415 2.570438844453777 -1.1130150064573294
219 -0.8777849519690246 -0.7868707015942488 -0.5443557994133559
223 0.40986060489966725 -1.8951960204724279 -0.1374283342729754
227 -1.5107842121437496 -0.8254629287100391 1.0274644929625587
232 -0.005377280141168111 0.01813626716998784 1.3818559402575694
229 0.3341688326417002 -1.2877799706559812 0.7945624176911715
196 0.7754191214994751 2.1095898652356477 -2.262848374759971
231 0.1979625578409444 -0.515165864914447 1.3071599998320498
233 0.466273818522792 -1.458025639511762 -1.4847329008544783
200 0.6622955589494817 -0.955945344956481 -1.9129392705100816
194 -0.5891145273666634 -0.06684850686050638 1.8596224939002266
235 -1.0453014015672066 -0.1306072132616194 0.7575398351482975
237 -0.4499824897399021 -0.3837965284114813 0.6795344044690051
239 -0.9276184409206759 -0.112817687805166 0.7711421077911497
202 1.31195647593352 -0.6160085668359933 0.2200614052430303
204 0.4258391000563303 -2.493495520681943 -1.6503095389387654
243 1.201303411170827 0.7920149311230692 0.4469562709727852
241 0.42994691667350154 0.8566476320047942 1.09617839256644
245 0.09734125984191841 -0.2583789598443165 1.2993967388406718
247 0.08591729767635224 0.7754459585589178 1.0303542108081618
645 -0.9410390273535101 0.1624748590543143 0.21780943136589068
206 0.08642915581009891 1.6056631368423981 -0.10856557229552177
212 2.811819167522643 1.5246387646854214 0.21951604714301215
251 -0.003951418783424563 1.3556584208935039 0.14675043086828568
210 0.669133180560346 -1.7699982269519603 1.6841837008381746
216 0.4956787383244527 -0.6556441290164207 -1.2204722290965273
255 1.1360780555032102 -0.9915244483960465 0.2533404070884868
614 -1.1231130823865612 -0.3237926654983914 -1.1033630800828313
253 -1.036302807256839 -0.21814454528100818 -0.1609642819208978
220 -0.4516127922290334 0.32975747442107733 0.8985677416947762
257 -0.6542970896831362 0.7135060712104262 -1.5902718914013876
259 -0.10462013152322513 0.3436084098091436 0.6092738091970444
224 2.1170836061278187 -1.8108237529338007 -0.533261198609576
218 0.6973156400818378 -0.8727039468562596 1.1170075366422274
261 0.3419791893136484 -0.7733586590881251 0.6477722160991581
263 -2.335084614023173 1.6777130902799953 -0.7821286530571192
228 -0.8207347579202307 0.20910005671504092 -1.0890904963556942
267 -0.4503746184444367 -1.1545973287894138 -0.3024803074242436
236 -3.121739219587552 -1.7115296572688647 -1.0394286646904887
271 2.1860600194900432 1.9978640178349316 0.27537316910481896
275 -1.1138375466559693 -0.9643491875896699 2.228291162059061
240 -0.6799439461744317 -0.02382493978378779 -0.198082311800162
234 0.7107292584449372 1.104079779124448 2.925338818813388
238 -0.5828478553782153 1.4798529011616774 1.478650968238512
279 1.3240028271090498 -1.3441787797534879 -1.2562071281052412
283 -0.11533101847788141 0.016034561421426927 0.01256774057261204
244 0.24361948010257095 0.7809746390163287 0.7983335044082395
242 0.009679689517381743 -1.018853837917615 -0.4947220088358029
248 -0.9019385976808675 -2.1293070037320754 1.3010651490840521
287 -1.4853354678103639 0.35332131864956867 0.17660432594466255
252 -0.26400309268285865 -1.023498919254773 2.4297423719723357
291 -0.09022292550976295 0.950537323855619 -0.16331084649000485
289 -0.49353911829935854 -0.5580600183696977 -0.5439758136262983
256 -0.7051586584880771 0.6151200771247873 -0.9662630844135368
295 -0.01030388228105579 -1.0934853757359713 0.6987497931611163
260 0.4032012985934129 -0.1378507713245893 2.5119945094706653
299 0.01770586029562469 0.047907753103041774 -0.01393615791267804
297 -0.7307507543649939 -0.39908285681629607 -0.02747816491137
264 -1.5321240513574186 1.6455309000034766 1.1626509753222471
258 -0.200902760470566 0.18478151980640006 -1.2788678472382466
301 -1.2980203955051306 1.1725945818614607 1.6049015157420043
303 -1.0975483536520685 -0.3012574302031263 -1.380318925253714
268 0.6526481277729385 0.9812497905752873 -0.015242474642027782
262 0.715938881984989 -1.26990712928374 0.0880980143204619
272 0.632674010667239 0.4062914478562402 -0.439000117095307
307 0.5525868570401683 -0.9904668581641517 1.2180696679183685
276 0.81915565723772 -0.09443952641671555 -0.035753887833982666
311 0.9938432965501052 -0.27961998853036907 0.8778581058938986
315 2.2246584498507347 -0.6591577315051618 0.6487028114287372
280 -0.9251840938132851 0.9909300595378229 0.7673056368463798
319 -0.49268910729382626 -0.6126177856403752 -1.1177334045097063
278 -0.6590592870249474 2.560051960694002 -1.3389274581418344
281 0.5165667865408468 0.7588434054493874 -1.6540830763343652
323 1.4839878335739194 1.4233974488150423 0.6160037415421912
288 0.30604440502631974 -0.9870128871827558 -0.15895836664724605
327 -0.5198439039546281 -0.05865815987194835 0.7888863908128312
292 -1.1419846569443606 -1.9095580381623982 1.7305589976230409
331 -1.6156976393376323 -2.110239216744369 -1.3760174605225468
290 0.2432723038824026 0.6105817974841365 0.53357613861131
296 -1.0296645531121114 0.17934981051112409 0.28242670199826614
335 1.0430908649237889 0.6278539934893227 0.3320405987108805
300 1.0858325860881193 0.42293927513395463 -1.2983181629296168
339 0.11973862556957783 -0.5431556072650233 0.39297006003887713
304 -0.002330668812110973 -0.6749572554670851 0.3298697569434208
343 -0.8720136764926119 -0.0754776885721332 0.13432937073746526
308 -0.9816494058223654 -1.0479433838971528 -0.869417948783267
302 -1.0669629481792642 -0.9103265415071562 0.08210721584904297
312 0.11147254344496733 -1.144065209252343 1.416876975882153
347 0.5164855567936708 -1.6308627826091942 -0.7350991862930388
706 1.3450103025727327 -0.011581312298493096 -1.2197382251353261
316 -0.629292815717342 0.9374900009356095 -0.4449186147027274
351 0.7155156271506803 0.9416754494673619 1.4930118628953408
355 -1.4102461050954422 2.0966870126153423 -0.14157241408560986
320 -1.5172050797032866 -0.6277718136392632 -0.38704403505605206
314 -1.2432542192632752 1.1210771316325923 2.6258447532002585
357 -0.6005473534919105 0.5107232231525182 -1.1067340435636328
284 -0.559847464442256 0.24667175672862024 0.5346944156690138
359 0.9701292169398433 0.5555752651556642 1.3669906665920017
321 0.2255479564937886 -1.0192153409672076 1.440861249086558
363 0.21117580377810466 0.3926264093722965 0.3016679431993131
322 0.3288542413861511 -0.6565151172623654 -2.1719055130085234
328 -1.2494103250865787 -1.5332936281236846 0.6961542729220305
367 -0.03006505963409752 -0.4920815608941904 -2.2466650957630963
326 -0.5429670902350261 1.9711000624166382 0.16673949184224085
332 -1.185467417274175 -0.724264680310573 0.08608458017282446
371 -1.4815216109038958 1.1032769065607806 -1.5600767355980552
369 -0.8178358981676465 -0.7032290019170414 -0.43697378110967117
330 0.01947312477587105 -0.24449054520622043 -0.9031906817933957
336 0.3354774524049401 -1.5794318096681645 -0.04426693815013913
375 1.0316243730314154 0.3987538970351135 -0.8823900214305016
334 0.026153610539298034 1.7347448668889556 1.080480025183008
340 0.13819424617181802 0.034092551234681044 0.683073487912269
379 -0.04248329800327648 1.8172945202690736 -0.7256700233043899
338 -1.0246758444527477 -0.1314520948116235 2.063379094507554
344 0.8002658121054351 -0.1816938628603922 1.0075561517783709
381 1.4520502581294379 -1.28037437759269 1.8377640774364326
383 -0.05444216478090713 0.6428892432174266 0.17314448038045138
348 0.2290915113679933 -0.7780787803509834 0.11852998129482423
385 1.1568047876735217 0.5473023693660148 -0.49423361130442295
352 -0.7713772074265373 2.2722550810564144 -1.2115242440272853
387 0.7770099581178017 0.02695330743167824 1.0531027628280254
389 -0.6203497127336821 -0.4918029534686333 -1.1533164754396767
356 -0.3856033038203165 -1.907928161807062 -0.844680690303329
391 -0.10857075347929936 1.0415443656644099 -0.45194388978291933
393 -1.534089111088307 0.8972213392420518 1.5232578040899931
350 -0.21770262397310192 -0.7199812913338002 -0.9523250108634879
360 -0.7990788721433087 1.2840308178898292 -1.0617018236923723
395 -2.3102639280894506 1.227781621604149 0.7866239772654997
397 0.16245934024100453 0.5908576406264895 0.8642420992437715
354 0.28337784294638113 -0.8852973044202251 -0.35220864886691006
324 -0.32127356421688624 0.08426080910963621 0.045764020141046365
399 -0.851482883120834 1.804603499862032 -0.2926873142380401
361 -0.4246852178062363 -1.590364458318982 1.1089223858550066
3 0.9277911319500035 -1.1606450755263815 -0.3296453274067613
362 -0.5604310483106071 -1.0378250260851392 1.334218189203767
364 1.5321795022393554 0.4661060228133754 1.8420977786886477
368 -0.5952387517933462 -0.28919164516450424 -1.1371458732047293
366 0.31724693022463696 -0.9222484707188808 0.8370552547245149
11 -1.3206019660509483 -0.15977390832030441 0.2134589038271943
9 -0.005524731609642873 -0.4048388268033906 0.6969410659261787
372 2.07648401200534 0.9792225009539739 0.5004075600778324
370 -2.133951850706177 -1.5952747507800145 1.5893126457794888
376 0.7153662582890936 0.5684299591304154 -0.4556855271099644
13 -0.3603425574516191 0.07540739950671946 -0.13044843963379577
380 0.04734704772370354 -1.4188291047571295 -2.3184570026873033
378 -0.09513799032630886 0.054554078238687784 -0.8948666017735571
384 1.2532071051402442 1.510556410234079 -0.5777166990178451
23 -0.45618493970100094 0.7645720186058885 -0.12550557501245474
388 0.15591701243043962 -0.44743499408675164 -1.9668820252433892
27 -1.0228724200777803 -0.6073341700017097 0.7894822975429535
29 -0.03490155099099071 1.847556426896482 0.8923760196584907
392 0.06388297104769834 -0.033034465019935046 0.36476195819641166
386 1.0629890969370521 0.8534628141030892 -1.173535411322825
31 0.7002937634780196 1.6100461079958315 -1.144586934148848
396 0.23413493382923864 -0.019366836339554598 1.5774896308541961
390 0.12077335620240559 -0.870681135312576 1.3684855700997822
37 -0.9809328677842053 0.5217463121950512 -1.824880663068427
35 -0.5687140796863522 0.326777675166278 -1.396783776821096
400 -0.6878408053423789 -0.8560468426945669 0.7371532654479938
1 1.7300030968571773 -1.4611448346363722 0.9351113710399076
402 0.1279777423174361 -1.1533794858664188 -0.6819137227582445
403 0.8088705250887815 1.3580277662028162 0.40595604082012376
408 -0.4882370905761437 1.1273083130013393 1.245877938617696
406 -1.2321130660453214 -0.7795715077501897 1.1479046748415696
407 -2.654913750720656 -1.3335454455818012 -0.8431718211915253
405 -1.28739291475778 0.7904452111072869 -0.8863543803916413
410 -1.4364875238172994 0.11831107084604997 0.044933103115275784
412 0.2335235076539822 0.4692957827922072 -0.3090693627648827
409 -0.5209090460920959 -0.9988222706938523 -1.609836302264046
411 -2.9363543526283227 0.15191391816677152 -0.8749138392419743
416 0.7074163669681952 -1.8117280304466776 -0.17164128078114438
414 -1.862060022119087 0.597901806476296 0.5741097217541998
413 -1.3291033651369513 -1.6210074942291286 -0.7776345786529254
415 -1.238654357720161 0.08904268245198611 -0.8824770788122946
420 -0.10030343249593622 1.656147257273887 0.22158563023022276
418 -0.017043464615444922 0.851792541884835 0.7341352206441039
417 -0.7894028165647249 1.1569099236151705 0.6841633227485182
419 -0.4331432174947621 -1.0029686745257516 1.2598020641288146
424 -1.33339977167394 -0.19815742109779247 0.9900209653927398
422 -0.4731033230774131 0.09355213363902111 -0.08966256729254317
428 -1.1522698796758468 -1.047632221359467 0.11360664999614903
423 0.7091879119255079 0.09633711552513821 0.5496760136764461
426 0.8505130771526755 -1.0818422291814747 -0.6817322221226996
432 -0.09708600230802109 1.6782001705834715 -0.3572773586440434
467 1.0706014611326446 -1.2318154364509617 0.23234955276716218
429 1.8643450487835251 1.028053517991672 0.5771519674967729
430 1.9311568254120393 0.9006624416427208 -0.7389342601455959
436 0.19203103355897755 -1.5952415239250066 0.936973003545485
434 -1.8601289614592886 -0.43563983400514805 1.1544954535497443
440 -0.10085888605530668 -0.698899654628466 -0.7778774950935519
404 -0.28763448027994026 0.857217127914621 0.40223972622699206
438 -0.3334608061204287 -0.186200371795768 -0.9123446525075695
439 1.673165813973338 -0.20032187053217845 -1.0489538590146799
443 0.4935979610368768 -0.26728690363807384 -0.7038503752622249
442 -1.018511540917249 -0.4211810011246099 0.1315654154465373
441 0.9186771192912626 -1.830866082815718 -1.2917382444554102
445 -1.0001140228632155 -1.6961716632314614 -0.13674940405943212
448 0.041717678735608374 -0.8116456679317358 -1.0460663048684138
447 -1.3116422472775036 0.3095933982091214 0.15208923691691875
446 -1.5648287385083635 0.5860182694664392 1.124441883580255
451 -1.1752858250288947 -1.224972841666183 0.08876944008107757
450 0.8812087348234884 -0.4481153361180019 -2.103162723906713
449 0.03218942336453569 -0.20949153986145086 0.5044467883665046
452 -0.01261012824945454 0.18584599393091703 -0.3024854406500584
455 0.42851981915025467 -0.8289359645364903 -0.46104739675723233
454 0.8439308479608619 1.0422611160579425 -0.20489456948890944
453 -0.24944542292991512 2.6661134436008873 0.480813045885798
456 0.6351420720026283 2.474221554406103 -0.08008251434922413
457 -1.794463435003922 0.1715305731020335 -2.1137320774801207
460 1.2421223462063058 1.0966131285705336 0.7022303377572425
458 -0.35632627083139645 -0.22660901615534054 0.4803279352171871
459 0.5528613374171285 -0.6978804434440864 -0.5182600619715352
461 -0.07160716430021725 0.2710687311428506 -2.189989847771724
464 1.267192326704021 -0.683604492224794 0.07758547046754133
465 0.20159283417638224 -0.4532466671992893 1.4039722282452625
463 0.6787106672626327 -0.6190180467439867 -1.488409125655367
462 -0.8081267657473912 -0.748659963276081 -0.8366910610220728
468 -0.3537970906094151 0.2163646146603055 -1.0438736236085926
466 0.21150829040640623 1.001965328335337 -0.8395466951658948
469 0.7730144485885801 -0.8237685884301487 0.41137810213615666
472 0.22564047545597674 -1.0434715487392077 -0.2941431490877877
471 -0.7592326653550794 0.25523251915318923 -0.2097464615439741
470 1.215786833650769 0.8618218623914282 -0.35528444637708995
473 -0.037426304983348625 0.02558580622449763 -1.004968636010675
476 0.5375616131569301 -0.865984698959588 1.4326689436412532
477 0.5608063787655597 1.6094493603361935 1.2107769831928759
475 0.2241981559892318 0.5110110971094272 1.8237494636096843
474 -1.1237208918508943 1.8656400006547547 0.650250223132338
480 0.5838464800661413 0.9484557252993095 -0.2058971415993202
444 -0.5182199042093449 1.8790472724767677 1.0827893628184777
478 0.12664411179017154 0.15393247846017943 -1.3483243821464845
479 -1.7917049469258532 2.69657143170009 1.3561377106868295
482 -0.7082924873312746 1.322068068874919 -0.809952284891399
483 -0.7759067008631468 0.36358393447000453 -1.0931349428597184
488 0.638860399811644 -0.03855122933559011 -1.7569267891350864
485 0.4861462652679651 1.35462066784966 -0.4715560954911207
486 -1.2136702424754469 -0.8603853033032568 0.1391546439132549
487 1.2686075743845824 0.33397813373474255 0.5811836100358638
489 0.674909949177155 0.893101715066975 0.47949773352507136
490 0.5160611164016564 0.7010922318011408 1.1773948540357109
491 0.2241235466614118 -0.12388185017936955 -0.3888070078379319
492 0.5475999422531542 -1.339072530207818 -1.136517770085377
493 1.7356858997287843 -0.5149475813059602 0.10939846423982713
494 -0.9838634854683749 1.4763412277131898 0.41527773322269607
495 0.25378787189086455 0.5249239261413634 0.6775271925915676
496 -0.2187388760524807 0.7728447152372339 -0.28495279354612624
497 -0.6318798185594833 0.23501310320606622 -1.038694916315184
500 0.3760675890409735 -1.1499338167301425 -0.9135217408361167
498 -0.571289670475726 -1.213640493958174 1.0931203643774106
499 0.7174957236956438 -0.39035207307043573 -0.5989637557732366
501 -0.8072135457104317 1.5586669289321502 1.800083751801641
504 0.16914300899561158 -0.002867389144128187 -1.5098483872098372
503 -0.7510708361509528 0.44813137028845723 -0.9255779486532664
502 -1.4192687862175997 -0.734615522952992 -0.209196483378852
505 -0.5718608194078062 -0.43870098469562974 -1.4413949901429577
508 1.024322523982877 -2.351871805197206 -1.3915665868192397
509 -0.6966147748591357 1.6407171986487397 -1.1418091113290594
506 0.8681377883965317 0.3850919870203343 0.6137154776539451
507 0.8985551298314729 1.3179121939348515 0.22432321060075133
512 1.0469193238432106 -1.1227336356812152 0.6541220931918483
510 1.739410837190346 0.5452634977949082 0.6456765279046414
513 -1.69941899638737 0.3529889513897039 -0.9460833181798578
511 -1.5129736909870592 1.2306742864066336 0.24842657291170037
516 0.452150318007249 1.7734529919545803 -1.354989397599753
514 -1.5062713780436414 -0.3278321100592287 -2.0866659892960775
517 0.8518734894919331 -1.1980073131763824 0.5164384307677456
515 0.6396185755239158 -1.4063518310360836 -0.4038650395347506
520 0.17309561780627528 0.3259151656250954 -1.3080650096239579
484 1.8174009479430029 -1.3325164130977902 -1.7881883327909698
518 1.0392412587347193 -1.4419830697221308 0.0011194692617288765
519 0.423914784531843 -0.3005610172480528 -0.8630871647910772
522 -0.176381218581334 0.5974502100031036 0.5397560876609435
523 -1.5537887788626308 -1.2193647458805041 0.2622770081044218
521 0.9331170827024 0.867164984956753 -0.7353963959311148
525 0.6795637323137195 1.9600176671345337 -0.39896941121810975
528 -0.5981746056555844 -0.3471746897573138 0.3672848354438719
526 -0.2711036802506781 -0.08638766900329949 2.019111926540514
527 0.5484757097840924 -0.20500137160173568 -0.7856699790016342
530 0.10324804384680634 0.6759662876986112 0.6754531583231477
529 -1.907355484781242 -1.555990814792313 -0.9606711043226577
532 0.7367919649138586 -1.2836695893365886 0.19253684264236012
531 0.8402287880541738 0.7336261722023817 0.642026592853654
533 -0.3131497430860208 -0.6842623677323978 0.42143624348591135
534 1.6867357183328944 -1.0392716992002198 -1.6650460958941125
536 1.3720157524883145 0.2804644739614558 -0.5585245487311552
535 0.31044914185708644 1.2540936646575578 -0.921636793284632
537 1.838075425564378 1.178997223977892 -1.8407380572314775
540 0.6789736138576289 -2.393636723991208 2.163984806366561
539 0.38362840532066395 -0.061555957579257456 -0.02760140627744926
538 -0.6794161965835182 0.9722885360755023 -0.938564778591142
541 0.07996441906734632 0.9233081741505275 -0.3160658611628953
544 0.3146292354903862 0.311445693245549 -0.6318412952495818
545 0.141202409135692 0.04757231498006839 -0.24306990182818974
542 1.008353116798728 -0.5594745330998144 1.1698423362844654
543 -0.5871097218691628 -0.5338691036868822 -0.3828980993395164
548 -0.48855407757229574 1.2477658949482584 -0.7737400738664334
549 0.40942151038176766 1.9714104819871285 -0.8631073515077329
546 -0.416364623055608 0.16881353536010646 0.7584393342472263
547 1.00522265848681 1.8882441800968521 0.2988491130880006
552 -0.7642941725369061 -0.08164877261858289 2.682475892488056
553 -0.16718058676852945 -0.6374612994763154 -0.8609506604733729
550 -0.6263672027902938 0.5523969073050655 0.12006248351717608
551 0.6831872570050979 -1.181190526917246 -0.7961788204841176
556 0.2304303060440226 1.1450948857923406 0.27548918522701177
555 1.492411635178678 0.4083943420474645 0.07589499953877167
560 1.3663047313637449 0.4541142792426173 0.6857831104136702
554 -0.9717153655028599 -1.8213389955003967 0.2488887141309761
557 -0.07594988739742725 1.504331549957555 -0.17949016943755497
524 2.060570470236257 0.21438440338771295 0.610163350914239
558 0.6504231068928266 -0.3798412445049731 -0.16820454784099845
559 -1.1434506112502063 0.233624067546013 -0.31557899171916987
563 0.2716317503969461 -0.6245341184057205 0.28576608978741597
562 -0.5240370632242431 -0.3742589147280872 -1.6011220405189148
561 0.14975757208611812 0.8039526618112134 -1.898186355011039
564 1.3199718091795767 0.37455499019768446 -1.3803524934593718
565 -1.455753665064309 -0.10186860936540593 0.893701564987967
567 0.40265655701632136 0.06678413944920886 -0.6420981838290309
568 0.313860527577381 -0.07836288506668158 1.0859250669313063
566 -1.7061822867676057 1.3368726590400926 -1.4474707116932843
569 -1.4484119417350179 0.2162035075010888 -0.5888864443183852
571 -0.8018245699277213 0.9871399246971927 -0.39264558945039923
570 0.5342431052372036 0.6854774682603803 -0.31150145592940603
572 -0.014783092149215074 1.8654979017568045 0.1012815573122643
574 0.03890940913831109 0.5240833161969697 -0.8493850122990395
573 -0.642040037997447 -1.3164907106296089 -0.8620517026198862
575 0.42109566661586423 0.38292821807247623 -0.023034049185739796
577 0.3979121816592802 1.1916871005604783 -0.90218372818607
579 -0.14019122641176116 3.094447681765285 -0.07462620650240635
581 0.2647097277291726 -1.421898358010757 0.9841176713792124
584 -2.0687418673527964 -0.3728588649532041 -0.37602210283002285
583 0.626807018244444 1.115492071296544 -0.9270380136543985
585 -1.0630748339735459 2.1967991510937024 -1.9684363691519216
588 -1.4774687921651724 -0.30787034220441384 -0.664964740388924
582 0.210743858685125 -0.06477702535374728 -0.09365947140901938
589 1.400371138531638 0.15885949034231056 0.17479900472304935
587 0.254604461831399 2.506564698207729 -1.333714979189507
586 -1.74583485896253 0.2596214045831983 -0.36377886259444514
592 -0.5903668630668845 -0.6516112228594759 -0.23575443306070767
590 -0.5611039033735425 0.9615507496173484 1.7990483675919167
591 -0.15081111077811438 0.45741296691107525 1.353869471760163
596 -1.711081692186504 0.26042485350920225 -0.28287196227041106
597 -2.923098413477398 -1.2708270100567027 0.7390207293037442
594 -1.129526282698378 -1.1960229381331449 -0.6657718410507959
595 -0.8888241053560094 0.7327471959303548 -0.6717740991652354
599 0.3220374457063503 -0.2196862241114558 -0.13761331289011824
603 -1.409569053011843 -0.10552175677802336 -2.222295966171046
601 0.7075669773653955 0.21086135490985677 0.2993452483379817
605 1.5773520452589704 0.020191757677747744 0.591518147208109
607 -0.9631745404424944 -0.7350159012968924 -0.2580777754584067
606 -0.6052199856645059 -0.9768605812226224 0.09808235697713158
609 0.5636156675122521 0.6884968706684076 -2.0765286366141176
611 -1.7927486927953782 -0.09803761399518403 2.1137009925283787
612 0.30572716854775367 -1.5392749574158417 2.6958635546812273
610 1.0395899207565416 -0.34589210485263605 0.206125532450837
576 1.4728079339436086 -0.6514073603035435 1.2993532570006854
613 0.030304346759557527 -1.902826445153919 -0.45037951889561034
615 -0.8212691404184655 -1.5136278168858484 -1.6792107643322551
580 -0.10171048705276117 0.6597392690658616 -1.3283974297992995
617 0.21212511850013324 -0.6424837972134032 1.0148418885341517
619 -0.3464488119503171 -0.1661404851465041 1.067911838699273
618 -1.8736240082973388 -0.08774092162687142 1.542014446730527
621 0.6275219872740561 -1.1168896143605447 -1.5423371091381897
623 0.8496329280161511 -0.8138591962221216 -1.9661193893931384
625 -1.5007914419059425 -2.0765234201831664 -0.9417878079553256
628 1.394639676584546 0.8513588916319028 -0.5305627276984324
629 0.30821399619257267 0.48170509740676015 2.0103207855221332
627 1.3388346391376882 -0.21527169307858546 -0.8627731606601061
626 -0.12386384126909257 0.7700910417172289 1.132490595664678
633 -1.0886472415866955 1.5623108683554354 -0.30769202815392444
631 0.4149177588205912 0.8064497525780565 -0.10858717140913732
637 -0.3294892805122983 0.26929261517366215 2.218735026554858
600 0.5521951968112739 -1.1668434180013907 3.2542083954656493
635 0.25572617098949474 2.421494974523862 -0.36119089011797595
639 0.6192381949370603 -0.4094667079639566 -0.16433678321786496
602 -0.7699907675441987 1.1271318302403104 -0.6560798838603705
643 -0.09196518714558022 -1.6310338851932749 -0.7349847514792535
641 0.964572489754926 1.2344130629053713 -0.31998080735915113
608 -2.2622074837713737 -0.4788990687296833 -0.8326428760694479
647 -1.5243210376655063 -1.375962327640773 -0.7716843510340924
649 -1.6228849539197439 -0.7037355210339497 -0.9107508806321055
651 0.8370224514453765 1.0778493804359135 -1.1477782135046188
616 0.03519584663534123 -0.5980390782789389 0.6942836890508387
653 -0.4914888986309789 0.2503405973270927 0.5512391159890561
655 0.3741442707826154 -1.0081032996941095 1.9421551105910082
620 0.9700123393655399 -0.6056094902604672 1.6442009548517071
657 -0.8250979367205342 -0.6914544409953148 -1.532796160101643
659 0.7483312325464453 -1.0869491814340957 -1.839094610351997
624 -0.1122257363746598 -1.0373859700458423 -0.8000635768914879
661 -1.9274585724513005 -0.38581038598028194 -0.6485217815960892
622 -1.8204960105440755 0.5437840419300938 0.4767760633180202
663 -1.4785922617148306 1.0848989438965004 -0.35152108374794644
665 -0.7845091525426636 0.01102301794224397 -2.3941724424214312
632 -1.7642033677581097 -0.7448052335872033 -0.28613947344749774
669 0.6859804809679344 -0.9344994360041986 -0.5574477259110104
667 0.18749421283699805 -0.4837002282281813 -0.4085362164368161
636 -0.6925452431482524 0.7339270224952206 -0.2791988532203898
673 0.5072953329345807 -1.5616432860863716 1.619730412635403
630 0.5557073250527462 -1.1327093802089818 0.286385339785077
671 -0.12853745104986442 1.1455069305638952 1.0504029481361055
634 -1.0078159830351787 -0.8534749168831379 0.7580595811264308
675 -0.06679749944490512 -1.8327229780776175 -1.3674288284654215
640 -0.6726321981677461 1.1425075651623076 -1.3010846037302042
677 0.16005224861038048 0.6378816559973458 -0.7362292494997063
638 -0.17723490240471107 -0.05707533116415696 2.516737908813964
604 -2.1625167138915393 0.9898031809123359 1.0682500526819345
679 -0.8856844133500271 -0.03933996739449731 -1.7432188986098542
642 -0.046842615371508016 0.1321753147655644 -1.4831345669674445
683 -0.6599427534860475 -2.022694807658407 -0.7173582249273505
681 -0.04921619847386206 -0.0603103037185142 -0.005735874118569571
648 -1.9113299837943905 0.7853824918695292 0.20111364768067042
646 0.4780200751581221 0.5049418868304 -1.5633555981902372
685 1.4462098722894692 -0.11059587998936066 0.8926893933138985
687 -2.5496512381005196 -1.3299502495547273 0.7620535995563207
650 -1.300504638257973 0.052901522978394705 0.9578235528984393
689 0.7414637064665206 -0.6118747879728834 -1.0065484798006987
652 0.24930997350897807 -0.029886325987493002 0.7677808141019137
691 0.9369028069231858 0.3922937755705237 0.630281664343469
654 -0.8385516924175902 -2.9492818715319737 -0.038760122021596614
693 0.37979746045820967 0.023270179852985032 -1.3135619361768536
656 0.43899363308424616 -0.35024928744796435 -0.36586455512398647
695 2.4475091123618635 0.7440952348933629 0.12337924609657236
697 -1.0666592648209678 1.6555098920484468 -1.3216022691859102
660 0.6305945489059886 0.8315856349639116 0.9121287332383443
699 -1.053484501985416 0.6793825699366582 0.13518615343431561
658 1.225408956626654 0.7207671571646074 0.7359014735754164
701 0.5774672140302564 -0.011197742038276693 -0.050692010434674105
664 -1.4756715137370366 1.3996867927297203 0.27942613240066927
662 0.024701742642956173 0.3866556486341747 -0.08901129393505319
703 0.8451884772061495 0.4270493280685262 -0.031229383996244347
705 -1.525196676448959 -1.049517718894925 0.27497088700255645
668 -1.2440794833841025 -1.3802748413162813 -1.0999406136393555
709 -1.4408225134913972 -0.6818999883601025 0.04620052969238188
666 -0.5674219161567806 0.8517836132295978 -0.1812126410424267
672 -0.8142126009992837 0.811222183550364 0.1738171791290748
707 -0.7066240557824442 -0.7800884837424807 -1.6433151204710252
670 0.37266386005387764 -0.7894544498195426 0.06478983160544415
713 0.6763158005159158 -0.11603041998226224 0.9482904397524533
676 0.9313960039144109 0.6716011986149052 -0.24678703822565376
711 0.08467498162025935 0.20483570336425738 -1.1314019892904787
717 -1.154137418803893 -0.5099549199842628 0.30432355817038165
674 0.1957927851161137 -0.15436435753392053 1.3970936809607455
715 -1.312295120270042 0.6676693472368614 0.5434462480504885
680 0.9727442570221335 0.39311084076789604 0.5707537737875336
644 -1.5132151462697625 1.5367232915949829 -0.7814746470802604
678 -0.8803031118593839 1.1315591239950475 -0.5890401363340058
719 1.7936002874490715 -0.30095332688121834 -0.7679767049841858
682 2.166091733517123 0.19439870228317965 0.7346356016498483
723 0.08053886027258844 -0.09541034690556552 0.0014396773333745668
725 1.591958506048565 -0.9431264177469642 -0.3290320936378562
688 0.043102437746052026 -0.48882670031985187 1.4191011043490753
686 -0.7431215042985045 -0.23891732942424612 0.5317959708522161
727 1.145982156024615 0.8647257853676367 -1.232374120051164
729 -0.7185518513660839 0.7486859011409152 0.9838950522742946
690 0.27967707753559784 -1.0150355782692198 -1.2050088907182905
692 -2.9339875352701315 1.1961126992968876 1.0478688013404232
731 -1.3255968486591392 -0.8058443312173752 0.7887561481328306
733 0.05499126959257492 0.2543925732862401 0.40502450912938065
694 -0.6788406010475846 0.631501600856528 0.27123743893999264
696 -0.7236755779784271 -0.5614271553504603 0.14020029506868284
735 -1.760847505621999 -0.8561692032411943 -0.25234215651190817
737 -0.031093194980825845 -1.8076062557098058 0.5228138914183658
700 1.6007771957417245 -0.022338988341544488 0.6182941699124563
698 -1.8860451444023314 -0.6169746931001184 1.24263161358184
739 0.42465905948512084 -1.0006502513681428 -1.1689044367535333
741 -0.42891931929349564 -1.3531936462326755 0.020907153431082567
704 0.7025749643645028 0.8270304150310788 -0.9456492961760288
702 -0.9272304505871506 0.9328227938519857 0.9184553690424188
743 -0.6420638970633005 -0.2319318832979103 0.5404779010880413
745 -0.6224013456472662 1.045483814423154 -1.8127640923693078
708 -1.6851572446396632 0.9361468504866692 0.5203693376361497
749 1.0567212823646346 0.6713095967960117 -2.1117565747629765
747 -1.2853027486395794 1.4718620310995385 -0.7564146885344465
712 -0.21525128902378748 -0.7523470197816702 0.4865340864732742
753 0.3622410483953349 -1.546692602027475 0.5880382127356139
710 -0.7025053710002024 -0.08544724589116803 -0.7143457711850185
716 0.6467385679016419 -0.2334861273135323 -0.12842808712101952
751 -0.7517457734305303 -0.8075206402904765 0.5539077130205446
714 0.7267998304565095 -0.807783559343296 -0.08292652477871512
755 -0.17081750521346606 0.1298732119740373 -0.10349477150775793
720 0.2626623530003917 -0.6651523266309316 0.2991768702659309
757 1.2257455283947858 -0.5704613499010756 -0.8445338079230266
684 0.5991622045746773 0.03299349003227777 0.24701935398424507
721 0.52733145394807 0.9391433302436405 -0.8852283382148782
718 -0.1255253289147506 -2.660253345678164 -1.167420813148983
759 -2.031577099431465 0.5025220897539728 -0.3554754902229806
722 0.2126163248949192 0.061394804536159184 -1.0565667154223313
763 0.535775793606395 -0.582184727060736 -0.20780501632678458
724 -0.8292378948880726 -0.8401449825890961 1.0643729062813096
728 -0.33778139265013796 -1.6005258110379466 0.30259691674272365
726 -0.7408837478226653 0.629330573310801 0.305224550031398
767 -1.1033765841595222 -0.9768292703210353 -0.4089170103184598
765 1.6145477577024248 1.4581367647715786 0.11034976085466904
730 1.1475281585995063 -0.1340597674111372 -2.0533759305240156
732 -1.9043268285944666 -0.5776865138341519 -0.46631176593674406
771 -0.5378614648704552 -1.756355620318186 0.3659390271768793
769 -0.19152122160105103 0.08632084540466359 0.3532054171580675
734 0.7285218110724394 0.5540425893256463 -0.26779633288239374
736 -0.3261587964720746 -0.29991243516516614 0.07110012970564422
775 0.776149822578056 -1.4850919644373606 -1.4897538021204604
773 1.0581218602947795 -1.5658462419403192 0.32368686820827125
777 0.9388477418821491 0.17803192980556753 0.358538326586669
740 -0.8713789405240308 -0.03869119864391944 -0.22579610741237974
779 1.6837421642028099 -0.9381555381945407 -1.1528651962679932
738 0.8260807801682702 0.07789921578004899 0.3544995391051913
781 -0.36837096872845737 0.8620842353822102 2.40948941341783
744 0.42480501586867386 -0.20964829293854695 0.2494527017666586
742 0.12437908877286936 1.3555612838813633 -1.9691239590344163
783 -1.18209246979023 0.05604168058858316 -0.019947529213211468
748 -0.283373729186086 0.6795586088101296 0.8635614430198385
785 -0.5991644287586493 0.2145310563353304 0.08179700554263054
746 1.3432760417190157 -2.515801621197013 -0.46796108891203786
752 -1.4835961147352241 0.8931574660199141 -0.7077865407549949
787 -1.1155680178887875 -0.9096497844984921 0.5925771145580309
789 -0.9175432755758892 1.6488365847819249 -0.05918254631182077
793 -1.7842230100930911 -0.7255254385899039 0.465174055568991
750 0.18538842246772155 -0.07697108079379027 -0.6439869569607961
756 0.44896783810944246 0.42166846943982966 -0.24418617211374277
791 -0.10565121287641113 -0.0028405169370940625 0.5891296815948699
754 0.5768387854283862 -0.7062586467336082 0.36380227164169243
760 -1.1650663525615572 1.0830574618746813 -0.07390258325604625
797 -0.35891042413135726 0.9592451531007615 -0.6270308489065964
795 -1.7279827902891611 0.2873205792388877 0.8772430513576818
761 0.944443900173059 1.3812040136539527 0.3149070463948289
758 1.8696536111366733 1.235330343475595 0.29183995133381363
799 -0.08070372908293093 0.7236558099846724 -0.12549318907154655
401 0.687301128631322 1.4895940318941605 -0.9780440236011999
762 1.0065554393608485 0.6898010369751613 0.5240515722878668
768 -0.3940592652854915 -0.03131474197808555 -0.7471895493875752
766 1.0053862415502297 -0.931743196361626 1.7393488423463523
770 0.37120069083571716 0.8954637122926005 -0.8393946516913755
772 1.550381389652154 1.2863695959447305 -1.2200822638305027
776 0.08977652705459713 -1.422788726512949 0.6280983813022122
774 -0.6420244857664287 -0.9985218743972532 1.1548998715679295
778 -0.9730930327131843 -0.7652387428528856 1.1820328306543622
780 1.5546857280760094 -0.22703177473695968 0.5252881652546072
421 1.330411964912488 -0.8610672211830901 0.9373529635593147
784 -1.214964893020045 -0.7073223519924333 0.02263538716064909
425 -0.8111743610112427 -0.9159266362354691 -0.2104760773725762
782 0.800912021716751 -0.10209136789218379 -0.016754115986892006
788 -1.2042444321941796 -0.1820728653930801 -0.3888233596491271
427 0.10513133347189668 -1.0142865608769374 0.7097891067618233
786 1.9162456673146868 0.5118619687272817 1.6925604762018511
792 0.9680592426119223 -1.0835292890582868 -0.1542870763544672
433 0.9951991733786577 -0.47605522670138223 0.5242550676391055
431 0.4594486253892923 -0.27587129970468083 0.6546205086198432
790 -0.8195498347469955 0.49931568519996883 -1.8703508179542214
796 -0.35802682841775635 0.5873425179352589 2.523193504169288
437 -1.214999174600778 -0.014873854016210799 0.970634522135904
435 0.2034369371282716 0.7572116075224783 -0.22136085616241782
794 -0.5406114780450483 1.0393480826478494 -0.5036007334589797
800 -0.12871418701897938 0.14342853333145156 0.5663529413781342
764 0.35004873623474553 -1.3885053690497005 0.9182133790805612
798 -1.194461166817592 0.2137254092518482 0.015895039965200527
802 -0.3308338195551285 2.607850176858963 0.40146438418271785
804 -2.2169022509451572 -2.0338893916412157 1.00595624844567
803 -0.8248928332580674 -0.08579768895835535 0.16024332234097777
801 0.32798091296342485 1.5778879190369302 -0.4529084688980996
808 0.7535765635481619 -0.3132807024485578 -2.373580793434362
806 0.09024592168487332 0.007370805639074281 -0.48201689688618
805 0.030905450125808805 -0.40594349334853636 -0.19919855163774455
807 1.7219783422503947 -0.3326906334674548 -0.8903432921567751
812 0.825241631273695 0.42279589101426607 0.23542002122517608
810 -0.6447024668902063 -0.29632950917596834 -0.20062660622002873
811 -0.5679268151123174 -0.05524039037877847 -0.03509531520331391
814 0.5609811284182263 0.9966836282058987 -0.6294771453611152
816 0.8623534164252561 0.02138236220626705 0.07752010016056748
815 -0.46489715624923045 -1.46269867558397 0.22836034395040855
813 1.8652576645301502 1.4992369863001451 1.3451280636230007
820 -0.699729140668565 0.07268780347772244 0.15166029968173633
818 -0.1793781230162914 -0.7419919803581713 0.32522699993319476
824 -1.5563278193964334 -0.8308287634150058 0.014438770970176868
821 -2.5746177804441097 0.966681862829362 0.7189917658068871
822 -1.627222929547325 1.5970753336506631 0.67074089153948
828 1.6425925049387482 0.3270486512708619 1.193937119817022
825 0.6588444457179762 0.6822313213368199 1.0653734966256245
826 0.20605591782610727 -0.2757837847669073 0.3217905864869232
832 0.509084302466038 -0.9189562460896914 -0.42935139249157644
830 0.874275925464376 1.7185939170724622 -1.6815552947863637
836 1.8875669906918344 -1.1942974498133587 -0.14565308650000577
834 -1.1624675985675483 0.6647161782418748 1.4857637201827165
840 -0.4877966418187262 -0.47039863288464845 0.5131673598124701
835 -1.5055227205408095 1.4379235760135394 -0.03011843443369831
838 -0.24019134604029027 -0.5546582860315695 0.010466794353714242
843 0.058206182323172165 0.5388299815534265 -0.18830371679880956
842 -1.1551632948421338 1.3838321946904315 -0.365134809830217
841 0.370814584482858 0.6183993669694349 0.17031167142027778
845 1.2488989370835952 2.0393188084005267 -1.779489063738844
848 0.2375469207891505 0.12777290227111412 0.8451800216132371
847 -1.2256410238529685 1.7269741642872727 1.2545688396202908
846 -0.8874378774132894 -0.08197600462278176 -0.7866068879364517
851 -0.6538012033342397 -1.1902282329324403 0.9595055925664175
849 -0.924008324956059 -0.6286272980684311 -1.0791129030171163
850 0.0764951274123428 -0.22840219894852504 -1.3224061557349311
852 0.5231106258505794 0.5168587267760991 -1.2618829679129557
853 0.8146455640259161 0.44618270669549137 0.387049167389267
854 -1.2395358787164017 -0.0115360525039228 0.01381311115259547
855 -0.1788648752306287 0.07569565779553791 -1.0322047996176624
856 2.6162714231741244 -1.0349604203905367 0.47041467402622583
857 -2.2900696951348527 0.7097790346652438 0.36832814038274403
860 0.23200576684225266 1.5577778765289834 1.143163566411131
858 0.09139036939704157 0.60168154477741 0.3998963652364545
859 0.1780661196589366 -0.4307952713241511 -0.6002461712706904
861 -0.20180697359739713 1.22876876056452 -1.2863133964837616
864 0.9247125313781939 2.9277546406137476 0.29877745263744604
862 0.10217225765576884 1.0341931789789105 0.28433383867466033
863 -0.5980014873230421 0.19768280596136398 -0.6031122827174292
865 0.3443789704754202 0.21080627194740134 0.0694871867844847
868 2.2109116985419197 0.5667757789921367 0.45496489868334117
866 -0.06799961389275302 0.3325800696897893 -1.4831868943590611
867 0.4729487926414463 -1.0792880222810568 -0.23752699368308272
869 1.3854023145867682 -0.5270680830563678 0.9763730348124131
872 -0.10745440633991318 0.3860445205413831 0.02445003780450865
871 0.5141313163209478 1.6659317564648606 0.4825184795589626
873 1.3323945518305245 1.5092979853470765 1.7568504276815085
870 -2.1700861999956818 0.534282454049089 1.4938086214138648
876 0.2877996162175297 1.3377069104232773 -0.38815816876635184
875 0.21985640295054765 -0.9506409955687899 1.6781230193187604
874 -0.7922077319064086 -0.3454380844302932 -1.1842662586769117
880 -1.110672170297418 0.738795038824121 1.7969814994851911
877 -1.4629137888661075 0.2726922626804597 -0.2765688896794372
844 0.031128337736328237 1.0157650370243998 -1.1863352508795866
879 2.073868508050378 0.7349198602500735 -0.606288739122662
878 1.2941738919267953 0.37674280887141515 -0.22539752652223496
882 -0.38180021952889176 0.2991410522553038 -0.9807676034743212
883 0.26812170812429403 1.034144200505258 0.75293783032825
884 -0.11653923010115182 1.9140770135990768 -0.19303540295732502
885 -0.9937313003645816 0.5018542889433131 0.024150105899630347
888 -0.06908137853482126 -2.350479481253009 -0.7296182506641442
886 0.5236753315447852 -0.30334790629350633 -0.8142924664441404
887 -0.46293576444447787 -0.21146350311354162 1.0567897767129883
890 2.1338729066368995 -0.5927703394811038 0.510253578213003
889 0.16572836586484152 -0.5275865355864794 0.4310344352211371
891 -0.45300607274356625 0.10481351702500788 -0.9370210252703866
892 -0.6397998646795674 -0.5474013083452203 1.0753016491133025
893 1.3519881845386321 -1.4169114307276054 -0.5372853768126604
896 -0.4449731727504981 -1.1918144930851908 -2.161805634413056
894 0.6465586076036709 1.5921719077295993 -0.6692272130892053
895 1.7445359096233688 -0.5738053019069367 1.1586875579142133
897 -0.2343463103511163 1.3249842365452174 1.90873031020723
900 -0.9908942862981591 -0.2235036696456503 -0.901982742383641
898 0.9697973816488432 0.07450772152634405 -0.6703261759405182
899 -0.12212206514858967 -0.426295988770339 -0.974249668216849
901 1.953773633448728 -0.042531224355499345 1.0917683303676
904 0.6480595318633557 -0.00865124289855411 -0.8453162277527001
902 -0.11715212757704077 -0.7504595635983066 -1.2538823150261593
903 0.688727568378093 0.16139368663586334 0.1078757606637802
905 1.8342973531352782 0.03234520678333398 -0.06992407159262823
908 0.027963080429895308 -0.4532347618034266 1.2692149918179392
907 -1.0786314630158973 -0.010236521722853598 -1.1962995861951409
906 0.2927464809849995 0.6378442035124868 -0.5093275563690359
909 -0.8520159565893162 0.9800047573154745 -1.438007490009921
912 -0.16956850344203941 0.9730166351824592 -0.1169306123744446
913 0.25325661472272304 0.3519014851576174 0.49329316613838176
910 -1.4448174375985936 1.0457629474308279 0.11135405694745264
911 1.0994502748708412 -2.5715599521661527 0.10321007325382733
916 0.1755886271834699 0.8010602085908911 -1.8355617523028556
914 0.3439583706033721 0.19141136379135837 1.542704949584593
915 0.13392516446053168 -0.7457144158099656 -1.0366601852411845
920 -0.6314939009768876 -0.5714479699827513 -0.7280388671823943
917 1.1749619018832702 -0.3097917504746582 -0.12256948283815768
881 1.5015382436545455 0.6688190978093003 -0.47124585281523546
918 -1.3695251785382778 0.7107711166436432 1.1053362054567686
919 -0.43708575438488195 -0.5588265644111816 0.09571735768011505
922 -1.4763664148977635 0.5834696442733176 0.433388630037446
923 1.4380129461824063 0.6653757857017256 -0.22965934308037744
928 -1.2409563179654628 1.449877368878036 0.7249097896563568
925 -0.14595152012623358 0.3552329436740634 -0.6051718733190615
927 0.5239250531500494 0.525571054991659 0.7094175952946333
926 0.18177057673862598 1.832364690941795 -0.026943567394871092
929 -1.0139284676990439 0.9712464940055346 0.4088821881478014
931 0.5187571269968553 -0.06091084955109796 1.5392998505769497
930 0.945258002161278 -0.12795638205569915 0.4275689268222823
932 1.0454045345577767 1.7108141857260406 -0.23504767599812892
936 -1.4704372443653275 -0.48541723088324135 -1.573902139354194
933 0.8906301515232554 0.2948876961281246 0.22351346871980113
935 -0.29261168985875136 -0.6072835687975755 -0.8896218496342292
934 0.522496408557634 -2.0094778540044147 0.2521528144500713
937 -0.7894007069940847 0.48708616012053363 -0.1280546846693925
940 0.734765499028237 -0.20402954391839823 1.220409744760186
938 0.6389144127270456 -0.37112247460599446 1.3615801098757467
939 1.139575714701336 0.3579531384294277 1.6545928828831484
941 -1.7933431289806652 -0.48745367117226646 1.8928033278342564
944 -0.22345491581849392 0.734442882721223 -0.666349720201954
943 -0.560727683722737 0.35626990735907565 0.28970214790372967
942 -1.221716735994776 -0.8507571740814972 -0.4412632835055709
945 0.6323221242385841 -0.38788350443701175 -1.6273582618465978
948 -0.27122906247389145 -1.2083362069778474 -0.5114024852735795
947 -0.8535155423673118 -1.980943811230384 -0.7431851714512293
946 0.43380454217350317 -0.5724872167157711 0.18723169628112654
949 -0.37270051385613395 0.7670694680824126 -0.5133108071270844
952 -0.8786824896779178 1.1589083945271368 0.36107699927642806
950 1.6780854602532913 0.3173340931603016 -1.6245097557561696
951 -1.2291363993212745 -0.7499260059272008 0.8246750521109839
953 -0.037012902049442964 -0.5160705417501319 1.5407082164166315
956 -1.3721635945882007 1.0285914264455875 1.4649658512724086
954 1.0731171622356745 1.0054466572228355 -2.2402792836898264
955 1.0810806301287674 1.322620985689011 0.4020081432878383
960 -0.19734378452136145 0.317046452842923 0.2756358081135572
957 1.0268331843585567 1.15229852385301 -0.48438248853814053
921 -1.5020983862916115 -1.0269349765522207 -1.9695057500000637
924 0.34765498541154555 -0.7496108549294338 0.03841463768151293
958 -0.7249004336764383 -0.9771165422867744 2.09344216839041
959 0.9552985719611803 -0.16402703047163494 1.5972349534054173
963 -0.40270891445919627 1.6272647998197296 -1.8801802700908217
961 -0.40889674374178736 -1.6954793319642847 0.10601995503635102
965 2.024881951327429 1.3474528457463855 0.2073121281012168
967 1.0611307385596913 -0.6082010246915288 -1.2020051686420263
966 0.027548421319461853 0.20866603868685138 -1.3355487056170259
968 0.00028704067180046846 0.17072680779388344 -0.7562958054767893
969 0.07518341892236653 -0.35374838405346054 0.4026774000830831
971 0.9936589687685401 -1.4425674365316477 -0.9743169803298072
972 -1.2398824692057304 -0.17080858954099828 -0.1875060037785829
970 1.8529602919078836 -0.5979306802290898 0.17178347128609847
973 0.22005740904873952 -0.0022840816483904918 -2.5153937794854833
975 1.291186826299567 0.1762499811157494 0.6972066733728564
974 -0.9684412881228657 -0.17735715795417378 0.23196348203818223
977 0.5830441582708086 -0.6517192916427639 0.8833696479102393
980 -0.19340279501238838 0.5535843422369089 -0.13815441509200863
979 0.6308687312539053 0.39668461583219833 -0.8248802948294952
978 0.249421170855115 1.010050933450294 0.055364704071145326
981 -0.0802923777532199 0.21808781537271366 -0.6989738619238732
984 -0.31470806625720543 -0.03465150530569829 -0.7576678838993819
983 1.227520169653704 0.49084611282137697 1.2689598036588532
985 0.37562765585606284 -0.1390719079889443 -0.3680479317820289
988 -1.487786922435197 0.09092363364954704 -0.5211186275295534
982 0.8912562325127621 -0.6403396800504372 0.38856284219615317
989 1.8090950404401027 0.8737874403596084 1.219737881952811
987 -1.0780552177915392 -0.08750627431485672 0.9448411605874686
986 1.3534440522657778 1.7669137832812276 0.2252177360923285
992 0.5152424486793383 -0.19156929630386557 0.19236952359807738
993 -1.132894765187628 0.8458635125014601 0.5216845701108025
991 -2.410616623373074 0.20104405121391866 0.01553839870989817
996 -0.8199106156272518 0.15428694305738822 -0.37077548203218696
990 -0.6799782580293313 1.8608712669291045 0.6462049571060214
995 -2.294164354081144 -0.22222967742218072 -0.947999272160771
997 0.9077870788828332 -1.574185842719046 -0.7185794678449692
994 -0.628234781931371 0.3253114880183963 1.3552684616667372
1000 -0.09663929206360083 -0.6806701794606753 0.8234144285385866
964 0.05269091049003542 -0.09854818311623059 -1.0291610131219109
999 -0.9949707657737361 -1.3029822609196466 -1.400988336775829
998 1.4950717851538524 0.5250130390276336 -1.557963671021655
962 -0.19298003363456068 -0.1241895866930881 -1.2514659897108802
1003 -0.07173068544199669 -1.2999295746402733 -0.7628071702071749
1005 -0.3777197164301416 -0.27451865732566494 -0.024179723657753685
1007 1.4723127138657417 0.9087026011905914 0.19978634840328455
1009 0.8392776477987872 -0.4479416626338871 0.4306592854826228
1011 -0.3014815929398557 -0.5687124530659202 -0.7976642340690063
1010 -1.097723458423964 1.9639684803437099 0.7571966442386533
976 -0.91940295303474 1.6295807478251294 1.0697113657347073
1013 -1.5792414271081776 0.9765294411215201 0.6507097365110612
1015 -0.04472506194398529 -1.1647214429134272 0.7885602768331823
1016 -0.32405511137273396 1.198340256913903 -0.7223119239404499
1017 0.15288720252990332 0.4193712951795386 -1.1542405872274863
1019 0.05961831004399703 -0.202520944185396 1.1351263667130653
1021 0.1521870171509697 -0.6995773217572976 0.5671290887083092
1023 -0.007492342942697523 0.5363056476960891 0.3151681651350022
1025 1.0849810240165236 0.7241818555263785 -2.3187805326483266
1028 0.2296054944038946 0.20942652067369483 -0.020926501679552217
1027 -0.45257886292692107 -1.3700211403511995 -0.09210221967778216
1029 -1.525790142778958 0.3197238581567288 0.23020188761865293
1032 0.3376369396115197 0.7343643426921089 -0.313638264391798
1033 -1.823549598593265 1.035540288227914 -0.46935929446853186
1031 -0.7039433163831701 0.44348666266855713 1.6633448954393568
1035 -0.5803684907476876 -0.6734000570588387 -0.5366882632881194
1037 -0.35734701840908 2.1266981554346343 1.4348041654786523
1001 2.1782415337804117 1.0863552008633712 0.7098045657545146
1039 -1.2368511098529191 -0.46123617845691445 -0.8292927116813894
1002 0.009328681280009094 0.7697833575476346 0.0919895623841835
1043 -0.6985397850743866 2.6799530456547385 1.4227343017673333
1041 0.2088417726398526 0.29720802145909025 -1.0814626027617242
1008 0.5588252005914358 -0.8748453315516621 0.3682855525961658
1006 -1.0598336629294944 -0.9059565992973021 -0.17815733060764702
1045 1.5077930530294295 -1.5383497103087211 -0.7102422661307974
1047 1.2083046717937393 0.7389823842205478 0.4037159894399244
1012 1.1574208273508886 -0.9058838536195226 -0.41328426151577363
1049 0.22866728681408227 -0.02903155375462942 0.08499390862401678
1051 0.46091235388472973 1.101126710327783 0.8753546737348847
1014 0.3267856715496159 0.8932171149859037 -1.9841055037644173
1053 -0.48112775149301995 -0.4065769443069913 -1.1515983879510465
1055 1.5358958567116396 0.062448989535091426 -0.20240396574033975
1020 1.2175948595861 0.25971341195254527 -0.8128218826621937
1057 -0.267582757511882 0.7049613998958489 -0.9307993886581418
1018 -0.3653633820072174 0.08281792023903752 -0.9058208950155716
1024 -1.039955404791903 1.6054940922538934 0.7401802267581692
1059 -0.034370314700468925 -0.5107365446246664 0.22277558807095607
1061 -1.167697174186382 -0.8700343596260381 -1.1790598628576767
1022 -0.9648718956105642 -0.4754481457015526 -0.9754414956182405
1063 0.6410111127512342 0.6109024545302596 2.657403072470541
1065 1.3616397396383864 0.26782197190541934 -0.181153091062455
1026 -1.3195986647276943 -0.4070890065262696 -0.44453781203748033
1069 -0.5298976721651255 0.28335087193037994 1.4243577412451085
1067 0.6354291651785653 0.5273946771684671 -0.026917403106117857
1036 -0.3684123195057659 -0.7514423712787811 0.46713972121753045
1030 -0.20378034167029746 -0.33078064265430096 -0.5223248756182081
1073 2.38545807105785 -1.8202383489273954 2.866172167845008
1071 -0.1303554345726462 0.8698029441870493 -0.5935475567523931
1077 -1.8640500148459902 -1.2236522330661341 -2.9545863306467073
1040 -0.05015212676156306 -1.2017439099587888 -0.8905793889103096
1034 -0.942155857550741 0.10990872124367379 1.0165542590962051
1075 1.626534188066061 -1.703270986130848 0.3014048188667542
1004 -1.0674060035942923 -0.1674167989501423 0.7751165501392335
1038 -1.008618564372835 -0.8303670692246251 1.5841379873077348
1079 -0.6968256042773412 -0.18488297007692625 2.4603852078860573
1042 -1.6476763742116636 1.3293713487858443 -1.099268184046135
1083 -1.5797217572268158 0.7593435401039408 -0.8401129990391824
1081 -0.27182899844706315 0.6342684582822055 -1.0561109669070365
1048 1.5818281286838551 -1.0257303024094826 -1.317922908923586
1085 -0.9625077547691068 0.34459278675485033 0.3828981472766287
1046 -1.1708111052936392 -1.2137138144130912 -1.6458944295996836
1087 0.8390303836023163 -1.3099749820737037 0.1703313876915705
1052 0.2888646660621862 -0.07898050045964097 -0.37000172762570205
1050 2.4342568707495786 -0.09734858866555823 -0.41932219001864995
1089 -2.170377927225358 1.3542840431057253 -0.009157147016049597
1091 -1.3106465657376607 -0.5426474803314255 -0.2724417514188511
1056 0.5383662246573868 -0.30071793580077677 -0.3335708843552095
1093 -0.9254893760200775 0.35180397353408094 -0.48593509890647013
1095 -1.0144711592295144 -2.613254532586847 -0.12592508532043847
1054 -0.9058378713370244 0.722952818800196 -1.5881190714726374
1060 -0.8981841487346262 0.6777331327840368 -0.777724431645461
1097 0.8240489317768795 0.1863692900877023 -0.717639581546165
1099 -1.6958653212750319 -0.38832377720869754 -0.12688721924615476
1058 0.628560693401324 -0.19244856507986774 0.1428717361021155
1064 -0.817131377209348 0.7494384671174009 -0.4746872660556976
1101 0.9069302134617244 0.2689635582554736 -0.012029170755231154
1062 0.2066428046558766 0.3466098779192055 1.039778724094091
1103 1.118564260710342 0.2448918811208642 0.28025691335534925
1105 -1.3177776245659825 -1.082658060499842 -0.10745512538913762
1068 -0.20346503061091328 -1.554123472663942 -0.7441674096296974
1066 1.3197969949764745 1.1895739007693868 -0.20532525260017923
1072 -0.3517487330903036 0.42667402749465433 1.699383234773453
1107 -1.088842220018082 -1.0153399128356524 -0.7216591437040394
1109 1.4911640858777426 -0.4319690756371156 0.24463184695134257
1070 0.1254620938337972 0.34079956283103774 -0.25336154287556734
1113 1.2622899653858843 0.17620898411449404 -1.7704722959612107
1076 0.32463307617233217 -0.312238734249046 0.4242315698967213
1111 -1.0237420908947368 0.13514361717151677 1.2291256170463576
1074 -0.1894038474179337 -0.2578780228082082 0.11389334435443903
1115 0.7050177027213426 0.913094201137816 -0.1901957310545387
1117 -1.1512968324310355 0.7098163967472617 1.1717375466378133
1080 -0.14517367155485353 -0.8401766898743394 -1.5064445156714974
1044 -2.079427778589832 1.417842311085391 1.3143712303284125
1078 -0.9466116169031872 -1.3308805914888622 1.3259670229712994
1119 0.1947041447967534 1.3846772034394053 0.025862713086630847
1082 1.473426355247277 -0.11400291292487409 -0.7036037908935089
1123 0.836030054511098 -1.0352195666511579 -1.6877839836226547
1084 -0.7691126842922781 -0.008955296027456407 -1.7389855230010651
1125 0.37532152106037153 2.1446138624727102 0.3336796481149333
1088 -1.7356355718393843 0.0572798434121013 1.2986758090782924
1086 -0.01232643926350338 1.7637130588667533 -1.000987961024542
1127 2.096566714470524 -0.40639998555684853 -0.6778312143419387
1129 -0.7624847075978393 1.250332713009402 0.41927077753607367
1090 1.5594193992426266 -1.7721197132787994 1.3135528617680399
1092 -0.2757507436957988 -0.09972646770056881 1.7262238042924913
1131 -0.1548583660118501 -0.06713911499923414 0.6056906164602993
1096 1.0630167522750995 -0.040722991647910725 -0.8025981774942823
1133 -0.308182095763853 1.195552307908584 0.01829833787389063
1135 0.28595611807042814 -0.523571758251327 -0.4249590763846442
1094 0.36763814792714405 -0.9797531353431805 -1.083381251333009
1100 -0.6551143242974236 -0.6567866849859674 -1.091037815987683
1137 1.1557569984086908 0.7785287343228688 -0.38698176764233816
1098 0.46257711005510077 -1.9069763385485043 1.537812945841657
1139 -0.7191553179638723 -1.1893110940911933 0.17770602813254407
1104 -0.3512704735858116 0.9580837948451727 -0.6487974072437687
1141 1.0753569477927198 -0.7859071909613987 0.228971489780718
1143 -0.7844779382098633 -0.1515350456226655 0.7470169045606796
1102 -1.3916874430447508 -0.008448925671638765 -0.3161817059908529
1145 1.2390742238251997 1.1803989139054258 -0.37612870018756084
1108 0.7399018201737478 -2.0651937673497835 0.9895410544263294
1147 -0.6852985372801903 0.44886965666622375 -0.5626631443849689
1149 -0.13901497158113377 -0.7553573966011937 -0.002330256591815893
1106 -2.136275757182933 0.25493342000337804 -0.502065742995883
1112 -0.16424418332717103 -1.051598648353016 2.3916062133868667
1110 -0.3804525341865235 0.5246070871225074 -1.3112520685016964
1116 -0.5920897589985747 2.5198605276380444 1.559938331641983
1151 0.029580114287733352 -1.4329812654269187 0.2454508122698343
1153 -0.23728581067311016 0.11920712763042313 1.8994871589332083
1114 -0.19474408305572002 -1.0977721047741196 -2.2239088079767226
1155 2.37941095474025 1.2530332678593004 -0.5567432617836623
1157 1.0974349449853371 -0.6111262638213699 -0.3849486352294546
1120 -0.12054317677959711 -1.6028389144200312 -0.6329635007767244
1121 -0.3654883391520903 -0.5349650516148264 1.1537243588879331
1118 0.6260284001549978 0.14010037038549894 0.19092700344279173
1159 -1.29028647136507 0.04864373762738782 1.196373666769174
1122 -0.10144565591911969 1.4215645663672218 -0.4678819308400384
1163 0.7962246790799963 -1.067439429234924 -2.163621677495338
1124 1.505767431494704 1.31881786081728 -0.9692427759467864
1161 -2.803716812295452 -0.7512742864415493 -1.4116106094670429
1128 0.8619073958225248 -0.9406083378558162 -1.815307066869088
1165 -0.7808058622492895 0.317324195630513 2.0791777310111628
1126 -0.5614910471065486 -0.24794066286532881 -0.657726720340113
1167 -2.0074102552738027 -0.19297875937036518 -0.6146078586362632
1132 -1.3384055463700477 -0.09635643780250254 0.23278589658475454
1130 -0.5901243054681996 -0.648324304782065 0.2570966623724462
1169 -0.5120875247834281 -2.2319090692717714 0.3382734587264776
1171 0.5187866499167804 -1.5181173924980533 0.36833213954977684
1136 -0.06025624225866812 0.3825644777787515 -0.5711022938271593
1134 0.6543808429655164 0.48234334344677543 0.6484241952094993
1175 -1.046932531633001 -0.2857519161297245 -0.09049649780808482
1173 -0.5084089039430891 1.8290229947205376 -1.4438516083108517
1140 -0.27238455602093115 0.6138483848336638 2.1475727548538166
1177 -0.6054725006707595 -0.23710882142465808 0.5473728464199069
1138 -1.8411781011956057 1.9706616891482798 -0.43568377758162946
1179 -0.10463824571140577 0.600021800141403 -0.7115523771539379
1144 -0.9373484252111646 -0.31971957304582016 -0.9987397244118718
1181 0.21492726682830676 -0.013992539448885228 -0.010164434755993957
1183 2.1987961179571167 0.858044330793698 0.7305321079175291
1142 -1.2110966484370769 0.6372128053848403 -0.7822164688657814
1148 1.5525451072876062 0.543272485929889 0.38242768947386613
1185 0.6289106614894588 0.6335871401918337 0.3319363682458378
1146 0.6380466616679591 -1.2534118930713958 -0.12523760914209336
1152 -0.1659559301411418 0.681467877114663 1.76558770700574
1189 0.10659993800277072 0.9964541497058391 -0.08420542430707532
1187 -0.48676961876080616 0.5453397768216219 -0.4950170606543533
1150 -2.975692877810848 0.21262432370256013 -1.45824859148091
1156 -0.808237340839053 -0.6112661118286923 -1.2146214759518636
1193 -1.4855700770318612 -0.9717583000982676 0.32631429019805713
1191 0.5956263411319423 0.8783430268760678 -2.1279203585172586
1154 0.2839445138248254 0.6759747714387498 -0.15805155251047776
1195 0.6458506344195184 0.12501106588235658 -1.918935145461268
1197 -0.3028417868772462 0.8313183295749864 -0.18993605662214874
1160 -0.9933404348698635 -0.9875631415885058 0.7518700164746145
1158 0.3096382880957768 -1.0343441956497486 -0.27270531033071016
1199 0.8325796876949918 0.5672868715083642 0.7714532405613069
1162 -0.36371242402381904 -0.2096968599709025 -0.823182661714494
1164 -1.1971113359396757 -0.2808930068265377 0.872854871930523
1168 -0.31773009162543514 -0.7716947110627302 -0.07793786298443828
1166 0.4705431437224177 -0.8669797060072143 0.1053905718182134
809 0.5234881708517681 -0.7976917216100767 -2.021322334456148
1170 -0.28932196238178776 -0.9913525792689982 1.08515400645177
1172 0.5542679433501513 0.7878582112144734 -0.4038934832976969
1176 0.07100507564090652 0.9003772432697363 -1.0707194501480777
1174 2.473039222250835 -0.6387571355451203 2.541125862863169
817 -0.07740556160268754 -0.19408654391649402 -1.2569317639295203
1180 0.05920575777423506 1.0274091005520873 0.22603464183968822
819 2.1684115288414616 1.5191286238192159 -0.45147820684421264
1178 -0.3808539074094476 -2.953460811853055 -0.6157472263348537
1184 0.06374428313362313 -1.2052643197989834 0.513609035908259
823 0.3224473997086688 -1.1172261366562186 0.8726202390221866
1182 -0.3224233968611886 1.1831759318060935 0.6634241601966915
1188 -0.7046360954782277 0.7883192253906911 2.376220933699821
829 0.014091859976212628 -0.19133958265009834 -0.5357969607050335
827 1.3931591045304788 -0.3680121502964999 -0.6923928850525107
1186 -0.7879759471311384 -0.5955626873717144 0.5679724947851892
1192 0.3734391280038847 0.7620226624067064 -1.5862793832266027
831 -1.3625657151329453 1.282301527730371 0.3313641827594356
833 0.18745846294798693 -0.8651751932097687 -1.8578361301140858
1190 1.1073625610828535 -0.515025080882011 -0.9488434926165231
1196 0.27331480451110535 0.6238503388285497 -0.945934976396602
837 -0.775290911458033 -0.957708926915343 0.09823041598968286
1194 -0.3310506700985839 -0.7323710395006072 -0.7694660655580942
1200 1.912918970289408 -0.4560479435638481 -0.08212219033467116
839 1.3986099686132236 -0.4135320647973059 0.8978039568863626
1198 0.33010756052896806 0.11659485867434427 -0.8257559346522514
1202 -1.1817056320541932 0.3458987327330419 0.39738059485487
1203 1.3786525933849472 1.3075406881973362 -0.06645037875422984
1204 1.6975362127916007 2.1595562783229045 -0.8919609776033597
1208 0.17319153164528678 0.4741215500145534 -0.9329193571649134
1205 0.42420116407094693 0.18287538691004915 1.4986412468126724
1206 -0.902411278873933 -0.6443664884521811 -0.3445696091781006
1210 -1.766406530840832 0.1864678145815299 0.5506084242605404
1212 -0.44842480631800036 0.3926405780131014 -1.8451617879185835
1209 -1.4544725758799282 -0.26019642191296277 -0.5992623528706359
1211 -1.0263339771476458 -2.756667115216711 -1.3600537053063968
1216 -1.3685462316381993 1.3648846544648334 -2.9494279975179603
1214 -0.30999286626142086 0.4956743282001527 0.22423090830026793
1220 -0.07427533397323868 0.33269208289251634 -0.4302184509868518
1218 -1.567436564735975 0.9841285632735688 0.29274177625683506
1219 -0.980304948711021 -0.25698712818460173 -1.0151396892054987
1215 -0.3289638345437061 -0.40413567388361066 0.7400560166733676
1224 -0.8222788193756503 0.817151363489223 -1.310364599818331
1222 -1.2065472801775161 1.1148934740114482 -0.6928045853862922
1228 -0.8892632584271569 -1.3793807098756576 -0.35547476973977493
1226 1.0807924059946452 -1.5035302666120267 -1.0850809550649185
1232 0.415047993465736 -0.9709738380333384 -0.4043657249313755
1267 -1.9714271678407447 0.5652640650194793 -1.4445143693956515
1227 -0.4299823103029642 -1.4205571688353562 -1.3224113719911008
1230 1.0501123868702231 -0.9410129559449596 -0.3235845145287085
1236 -0.9033941760241129 0.16385415395014377 0.01465193910823559
1234 -0.3397443996707955 -1.0200147945289466 -0.40104687332689204
1240 0.44327398602622103 -0.23205174327150155 -0.07205549838959424
1237 0.1311968381871227 0.06817000275171821 -0.29020211176203503
1238 -0.4398331848448077 -1.4781416611937361 1.02188064200768
1239 -0.49691333832237533 -0.9466750678236432 -1.2674036770467119
1243 2.2368713942362843 0.16222388249022018 2.259884894449851
1242 -0.15088269650590339 -0.0343734944036266 0.8213224061169859
1247 -0.035175268238525494 -1.3576002344847318 -0.13176216938920135
1248 0.40215713233290534 -1.9302405273516032 -0.2874943273759317
1245 -1.2960227157548074 1.1101149913314454 0.8794048497913637
1246 -0.40584343616251944 0.46725170580314623 -0.23264537100850657
1251 -0.9036738671444345 -0.3562118810839158 -1.0262995037629508
1249 1.3726445108484888 -0.8841986244310945 0.4682384353324631
1250 0.7241772005963583 -0.5741281142247913 -1.2752447359492183
1252 -0.3001050038856248 -0.4831846102054466 -0.1384397755629919
1253 1.2512284399480604 -0.3281835392546655 -1.7750970789002478
1255 0.5704303519751669 1.2025274007471285 0.5960576058008831
1256 -1.794759479661073 -0.7959473744900851 2.7264517671323105
1254 -0.3406939739545745 1.1913893981424457 -0.16312148581174896
1257 0.6870279840458601 -1.8642472007573614 -0.8279875826309199
1260 1.4894465098150955 -0.5985763323149924 1.458178383553889
1259 0.447408278059834 0.7667079706741603 0.9672177323382629
1258 -0.8580320300286469 -1.4727257462139063 -0.7629361197851886
1261 -1.1269962510791336 2.148394605378269 -1.5763709817791303
1264 -0.06588977002395355 -1.0897622881451683 -0.9494213005420408
1263 0.008147075042796484 0.2183118402039252 -0.8243416759659146
1262 -1.117191355765449 -0.6756211508308361 -1.3133454578215726
1265 0.02389386808003634 -0.5596680352271595 -0.4858855391716054
1268 1.931238879579921 0.19269333480581458 1.197743362741495
1269 0.5733210656061554 0.36143051396811265 1.088185188455372
1266 0.3024126218618055 2.7496624930556273 0.37515897642424684
1272 0.1604319003106478 0.5576219049273202 -0.017178710048144072
1271 -1.2689787565576816 0.10306803493425222 2.1858601688975847
1273 -0.2221745465742685 -0.8507820544097034 -0.1266060232639637
1270 0.6854126598497314 0.8775703975729533 0.5399580689038977
1276 -0.33546884376362945 -0.11887793522733972 -0.14164359610538177
1275 1.5439045707943704 0.5122080803041161 -2.0557933583994346
1274 0.5055327470131858 -1.063357711477794 0.8259913585964962
1277 -1.0507458406081205 -0.40898280990353947 0.7171864749970067
1280 -0.3708995675631222 -0.9335371674390651 -1.3519190919437536
1241 -0.8306941375168967 -1.4666395253188071 -0.7603246554409903
1244 0.4596502319088763 -0.5871158669627861 0.06968419247991575
1278 -0.31972410670030577 1.1210299186023722 0.14627664555812642
1279 0.48705850170381215 0.6715402848415484 -0.748397725393219
1282 2.1556126094376458 -0.7527769423237122 0.9188127653169604
1283 -0.25018116227800047 0.04812990627271854 -0.04895261307754559
1284 0.604137110877925 0.15549484219511492 -0.14857545647396397
1281 -2.71932137792869 -0.6062476205726035 -0.728598948466301
1285 0.4533706197392291 -1.6348544300860104 -1.1780185403829186
1286 0.9505609108792267 -0.08880941231957291 -0.04157201148775987
1287 -1.1754918419446063 -0.29648098140556095 -0.8102829458314093
1288 -1.6577105714505875 -0.8946582740678487 0.073608641547699
1289 0.5206544901061416 -0.5545138352365975 -0.6689942821881337
1290 -1.98489708916505 0.09756080509470469 0.2794602353062546
1292 0.8993401677717782 0.3364394821941997 0.09552072231446375
1291 -1.1374068745542902 -0.9641571519331547 -1.2103834802886027
1293 -0.5733293135090876 -0.6929253409108421 -1.1278993343925692
1296 -0.07860569122039934 1.5395849881388197 0.649816048462073
1294 0.11213245094108212 -0.7598423964474325 0.3321380273062239
1295 0.929172594989212 0.9365599242729793 -0.020246848354405968
1297 0.5005310584634963 -0.7864203910225566 0.7049998832342559
1300 -0.9087292100391919 -1.1329227441370435 1.414064934182079
1298 0.35733885538799776 -1.3287325901012117 0.5320757710618276
1299 -0.591643824604243 -0.8897672107504682 -0.8082985080201088
1301 -0.22184130215136633 -0.8094152578737878 -1.7080254898335865
1304 0.6141049489000959 0.5097890754756053 -0.9412350920807878
1303 0.6829649095648214 -1.5876681368222696 -1.1718783856301696
1302 -0.831768153112411 -0.7006208248495459 0.1670111901212481
1305 1.7158448608999146 0.2827119499560138 1.2075909361388986
1308 0.4481788295835567 -2.0214198521719786 -0.37631851083674306
1307 0.4647129273254224 -0.23846483100128138 -0.4767405119487398
1306 -1.313793511078153 -0.42280138526294103 0.6751651452173211
1309 -1.0979167035175363 0.8566665382242488 -1.098327717893707
1312 -0.1705582564812159 0.04097667974091151 0.20690350675364003
1310 -0.07717309933669056 0.40542086533636745 -0.8717928161475313
1313 -0.06769549016894398 0.9787329557798568 -0.272945880377384
1316 0.40841023745935207 0.1644633676899372 0.345551802385775
1311 0.5665745477215844 1.57658318859078 -3.3229211096059226
1314 0.3122684598269816 -0.5578651766981286 0.06196369533503053
1315 0.18194246674128906 -1.6113562935669732 -1.9144303051488762
1317 1.0998594211803006 -0.10122613600018857 1.3802757471932872
1320 -1.474126400095568 -1.050900474420456 -0.28479584722562235
1318 -0.6078616981127254 -1.9534087785293848 -1.0776037367165288
1319 1.563598928209304 -0.8921134029161593 -0.23012671532730924
1323 -1.0151400693214108 -0.36716426239406946 0.13230325453040048
1322 -0.44480724217167555 0.9073826132145961 0.3251925550995659
1321 -0.6344463576369328 0.13232647031521594 0.05681144764413073
1325 -0.4310382640224549 -3.0126200725599444 -1.360049832875737
1328 -0.7958723576081358 0.7682279697350485 0.11004141432365291
1327 0.4955674909871117 -1.573135364272793 0.41565338071878505
1326 -0.6757596397129632 0.34082972020670066 0.8046753865575071
1329 -0.24864992527894764 2.546675886061382 -1.318676386425853
1332 -1.8099810976401995 1.2472433046327123 0.18096286316219043
1330 -0.3873650356902203 -0.763317982105203 0.4508663757294069
1331 2.1394176389558757 -0.7970124142000392 -1.2258524238845685
1333 -1.8384592274675677 0.2088274355079617 0.2588152638135454
1334 -1.9554070196706415 -2.097144633974589 -0.58713445004008
1335 0.7720456213990435 1.2387605534295703 -2.1854624227933908
1336 -0.4320254403875816 -0.6119345597607058 1.0622207247568283
1337 -0.8484050083500534 0.2173235157554303 -1.0141451832200796
1338 0.27009818394502305 1.309835970612801 -1.216519115879432
1339 0.7609267353305533 1.1547931009537098 0.394338196689749
1341 0.5702898174707247 -0.06625063572760255 0.5079657920065952
1344 -0.39501448609118794 0.0009920029076083484 -0.4833149671586335
1343 -1.2337256927204627 -1.1569545426683712 -0.5866161333572625
1342 -0.5328787351837363 0.10179950602452027 -0.7559757351920166
1345 -1.4619780024318072 -0.9813362109000092 1.2363374026543155
1348 0.02015780991922948 1.5576076179835125 -0.9522119603918232
1347 0.8299114164924769 -1.5838774498927743 -0.8984017652349238
1349 1.3498887627508134 0.14440183681990312 -1.0602577891184826
1352 0.6285106624343187 1.006528027977162 1.1728898296045485
1346 -0.8954099823915 2.8088404979891766 -0.07321568266428187
1353 -0.1671580779445211 -1.484289166093745 0.15162924700411465
1350 -0.7017161689861443 0.4600958570852832 -1.390846671544662
1356 0.4634374465328669 -0.6794963123731648 -0.729973757887194
1351 -1.3694443616748906 0.46276960071039114 -1.2259534930888951
1355 0.16641342960353153 0.16596262877177514 -0.49110117447593515
1354 -0.43565820274254796 0.11967206554693557 -1.9924494588149342
1357 0.3357625735654922 -1.5990030006268752 0.23362188674256237
1360 -1.8384213403727976 -0.9069241623180145 1.1613277763875693
1324 1.3201000655370756 -0.032546709880477205 -0.3984064092980582
1358 0.9208071552367558 -1.396594718587378 0.4844983486369085
1359 1.6332685399889266 1.0570329709584436 -0.21507306399573084
1363 -0.31828137029048964 -0.29940424374603 -1.8163753121447996
1362 -0.9575454382756631 0.5649346643239596 1.0807216405775861
1365 -0.5838602219348248 -0.507045919242069 2.3886853692953984
1367 -1.4484097546861514 1.1110298191423793 -0.49589910075511884
1366 -0.638213691165622 -0.2022312266886175 -1.0424889438864673
1368 0.4257019060225839 0.22430447328990613 2.226058667902868
1369 -0.6605496868739105 -0.7074985492643477 -0.2850669352274884
1371 0.7104094634397259 -1.4683839179025038 0.3274332660552586
1372 0.29945642246517634 -0.28093860803499277 -0.4182169960174894
1370 -1.4518301434506504 0.3510380227371208 1.764840588045609
1373 1.702195429551936 1.886423863508728 1.3357417678500159
1375 -0.25517051988152584 1.0739627101709066 -0.5130024784889722
1376 1.4212859352971285 -0.12991441930119804 -0.8954506068213466
1374 0.2253394682677617 1.2095186913508182 -1.120119491414794
1377 0.33530471968572617 -0.729293796387555 -1.484934063909798
1379 1.4248096128845313 0.5569717962709683 -0.14515526728629174
1380 -0.01141351538305929 -0.0656024334907497 1.0006040283417776
1378 -1.945205567175293 -1.3939877589343495 0.6325082587762838
1381 -0.03766783657279614 0.1743788056407959 -0.06303384486237194
1384 1.1276672965055508 -0.3385110497530243 -1.0300203435709738
1383 0.5352696919995671 -1.5486693598468704 0.6962879670838115
1382 -1.0201654160170792 -0.25681315584740017 0.13314100697434939
1385 0.6963657178969819 -0.3935971060610291 0.8866595025440469
1388 -1.052696902304339 0.6535254892068084 2.2277969599968577
1389 0.9768705062753995 -0.45363090440072346 0.7398042500388563
1387 0.8973196802112379 -0.4529709763279345 0.5955305656222342
1386 -0.9331966295920223 -0.5657021619205177 0.5313146656201043
1392 0.5743358223655853 1.0099678333606417 -0.017890832240843143
1393 -0.17712582503909496 -1.5488672839538258 0.28094100597595184
1391 -2.451770443827261 0.11600728302880674 1.63307929850731
1396 0.7751473207714241 -0.3603208852152233 1.4559132001123463
1390 -1.1933538072799048 -0.1379297587243127 1.0752956367218414
1395 -0.6080377862180002 -0.05700898860294997 0.24862355861048252
1397 -1.0755228793235971 -0.6288233112821747 0.32443899497038436
1394 0.1637385941112927 0.8518067258881499 -1.2880807024159602
1400 -0.27621370259498024 -2.2566388159344277 0.003614189115996047
1361 0.1615125903245884 1.1040516005576622 0.7435296256701911
1399 0.4413852195391849 2.1322116872660906 -0.42380883495865695
1398 -0.20988677708559175 -1.6950722597938754 -0.640527762881853
1364 -0.2886657006752527 -0.3287500978716292 0.743421456002573
1403 0.6553331636876671 0.1717773330211563 -0.7398996147801072
1401 0.6052193273490426 -2.1402038195316253 0.6643815418673414
1405 1.9842527482896795 -0.7252920617658734 0.49594462621963187
1407 1.0228934633727769 1.288026343807652 1.9231184318825203
1409 0.6196481741477555 -0.30439733357162196 -0.6789514300309608
1411 0.18256100779207707 -2.1844603114758026 0.6825300418524497
1412 -0.820921156839804 1.7480840459442095 0.9407664379806102
1413 -2.18970362746153 -0.7067879455895403 -0.4000299804890659
1415 0.46910914860394776 0.639838154726345 -2.063684263059602
1417 0.7764973215516827 -0.7632395854005334 -3.0834743806710994
1419 0.11898940753972966 1.0017056743576447 -1.241520971815945
1420 -0.8132080022036633 0.6007386945508012 -0.8170583420908256
1421 1.1699597854752228 0.3599882018126302 1.7008668445962307
1423 0.6625873868878382 -0.11616261652125652 1.0962436454502487
1425 2.5264796931207654 1.3730892621694166 1.5318158846361385
1427 0.8270096276883304 -0.18608524921290992 -0.025255606142629696
1429 -0.008207055512853572 -0.31363926882239307 -1.2811602240536988
1433 -0.8158880617800031 -1.6917520780534128 0.7992823305053809
1431 0.026984715398672667 0.21551366245044992 -0.6759944028208216
1436 -0.893934235986824 1.5214981973342887 1.1615193814511902
1430 1.5609893414002398 -0.7156336045269658 -1.1262649618809726
1435 -1.0067592866411286 0.8766294261305623 0.0059738547052289835
1437 -0.7297864711229827 -2.148412931384296 0.5925942211784421
1434 0.9191476047471718 -0.09073439456016738 -0.25236084225309396
1439 0.5872276638177033 -0.47523023203367953 -0.43427938155865803
1438 0.06199951015268751 -0.9245871110181086 -0.08072746406236594
1402 -1.2269155149552007 -0.5584720766062353 0.8167634781779719
1443 -0.7494348551687989 -1.3334593966750996 1.6466444315331754
1408 0.482806863507956 -1.0747948363446662 -2.013051514245711
1445 1.722203625284018 1.2758271727165416 0.8127047921774587
1406 -0.8150447830816243 -1.407110245075879 0.39428742790922994
1447 0.7760365789801486 -0.4929962210431424 -1.5856800228598744
1410 -0.05020431253432346 -0.36117381260007997 1.5970280251373956
1449 -0.7888589552304067 2.6930345479324136 1.1729274775735457
1451 -0.6942472887717136 0.5770407627305078 -0.5804255313238337
1414 -0.6080768828059906 0.4806393180223127 -0.911131252867312
1416 1.4765361351849768 0.12019283304221365 0.5878613566052094
1453 1.2899780216523027 0.29677602126148156 -1.5311107563989466
1455 -0.9289567165206343 0.798308876938235 -0.34455747853367064
1418 -0.4779642489188899 -0.5092512603106563 0.6085571816158815
1457 -0.15915535432631256 0.4479168480890214 0.28973384947765163
1459 -0.20206032454181694 -0.6661915640089733 0.05561596028783766
1424 0.4673111450842671 1.4529790712360906 1.1312870950713068
1461 1.1609408356504118 0.7514494545184549 0.5736443633400552
1422 0.2671027546157655 0.5497557052107946 -0.36724903970819195
1463 1.074320052495513 -0.09046928666518125 0.15157108244230166
1428 0.9089154893487432 -0.6390012574011736 -3.455846452779644
1465 0.8040614842586667 0.9958655138044656 0.3904760435106006
1432 0.9347130874358835 0.3581101743582976 -0.06230713708328054
1426 0.8693628952116003 0.2728636281888723 0.7074263486521882
1467 -0.23659433994030352 -3.0333494962525336 0.48485140512896097
1469 0.3456767189704201 -1.3723008261794012 0.8073241619362181
1473 -0.4558742733795096 -0.6911672360041452 0.9510837422635928
1471 -0.034719744412827734 -0.46431137713694365 -0.7364581918993285
1440 -1.116274139366916 -0.9977069361448361 -1.4657229646534022
1475 0.26833313498361017 -0.32639837634669155 0.8300204631684459
1477 0.772165345588369 -2.1341574251083624 0.035010648157600466
1404 -1.2234999003934863 -0.27100382693143427 -0.6797133153084572
1441 1.1754491762032941 0.9570010485247505 -0.6346408148124186
1479 -0.9102249755936128 0.9312148166166033 -1.2735197986058169
1442 0.5360759714628096 -0.03391440663929632 -0.7624740259728094
1483 0.3665183187021045 -0.6115705161114542 0.27713535894578145
1444 0.5522901337649223 1.0931657550341118 -0.3173644113304637
1481 0.1290503630560161 -1.0555116430072826 2.1089991746334102
1485 0.2721957462447792 -0.7801643668105251 1.4159980872707592
1446 0.4295477709089281 -0.4774452973259197 0.40090761216933124
1487 0.7353468940283484 -1.583445813968504 0.3287924590556281
1448 -0.5205641803782424 -0.6788142858644162 1.0767426420445299
1489 1.1102695231013793 1.3017978537399688 -1.220190831849552
1450 1.5706655423117046 1.657400913889949 -1.8550311613413761
1491 -1.0330888967215295 -0.21910665539290353 -0.47754278339153944
1452 0.3915123764829464 -0.5691670612089572 -0.41834237733911406
1456 -0.6094031634771361 1.559402617889307 1.4868737736689703
1493 -0.9044279229596188 -0.680270007695862 0.7335953895331575
1495 0.6701005875568314 -0.10657211899656296 -0.4352564657846022
1454 -1.8270084891140257 -0.7660708194479199 -1.128142507465449
1497 0.3137479201903693 0.3658573255088578 0.7293677643210493
1460 -1.6566298509946833 -0.849357062524606 -1.1319591617725828
1458 1.184364998690481 1.6369182649549943 0.6652380080044271
1499 0.3827469258152904 -0.2128006834163141 -0.4643885568429658
1501 -1.417937566446888 1.3577581102930683 0.16246777075246616
1464 -0.7641424428419092 0.19893965699570457 -0.6985557710083723
1503 -0.232383018231561 -1.1143640045010064 1.9312132816950651
1462 1.0743641466564042 1.3827052985498673 -0.015454124424357419
1505 -0.33175085644162056 0.06691278133973298 -0.8891502766722913
1468 0.4615795015265094 1.1088478631518077 -1.3312090679349304
1466 0.10124643240937772 -1.1664409556325273 1.3019788352597261
1472 -2.0351361073007643 -1.553684051569426 -0.1418240856694286
1509 -0.9566741771431505 -1.6308195383255275 1.6000014677302286
1507 0.2222550037496549 1.4278169828178922 -0.8198198898712491
1513 0.6601182675668273 0.28930635386135145 0.9129752490858339
1470 -0.8432201147368822 0.30353940180576733 0.6450835521064907
1511 -0.42134654450779996 0.5984964876058277 -0.4043407341709086
1476 -0.7544799244419077 0.12378945377347979 -0.05166959128761456
1474 -0.7758218479935726 -1.6332380978381522 -0.6930195537300352
1515 1.56362601213353 1.7578600767188604 -2.3481911633679706
1480 -0.6893599873293885 1.0041246484539534 -1.2689698272869756
1517 0.3636493399214859 -1.3076920603504767 0.05736763925517023
1478 -0.5897245049523241 -0.9824041312928394 1.0697786763678245
1519 0.33252591446770147 0.36116390214855426 0.15955441382266328
1482 1.0076920177006476 2.322497914209728 0.5763916788049948
1523 -0.6945572883735139 -2.09546542048103 1.2428140680282134
1525 -0.35598641661894703 -0.24724628899792758 1.8895952612679252
1488 -1.6396898884538014 -1.8037391885890295 0.07905310675467908
1486 -0.2903348500286616 0.20330885049124944 0.09301498524761218
1527 1.2651368285313078 -0.213022616528751 1.5437045647797503
1492 -0.8404893913354138 0.22853634635936385 0.4444417574819761
1490 0.4007257200347667 -0.5334392092301591 -1.4237442791167816
1529 -0.09498614769809337 0.1735612491110993 0.918696770034895
1531 -1.01716554425735 -0.030551744418421123 -0.5066695006150812
1533 0.35527025313284183 -0.08471481830815271 1.3370427110769394
1496 -0.15853372830775772 -1.0809261710247589 0.23499176917442693
1494 -0.22005632596532534 -1.2885160533546154 -0.22139019081381073
1535 1.8925571987466296 -0.9945881805636327 0.9474261887192372
1500 -0.2680360508451203 0.3350255891387588 -0.3784792835782583
1537 -0.31945955549204885 -0.4398628362154593 -1.0412232749429744
1539 -0.05380128267465993 -0.20371897045827603 0.23560446442663827
1498 1.6069422686909067 1.3353924615303805 1.9334571246628272
1541 -0.2980601433111448 -1.144913741597424 -0.8919528154137786
1504 1.5783929269345862 1.164739059773343 1.7537299517425622
1543 0.5950289631572736 -1.178298755804871 -0.77608469978119
1502 -0.8408669872608348 -0.9396488385405393 0.566215484338771
1508 -1.8606902166234216 -0.8747134445950404 -1.3328107211587699
1545 -0.611290818829203 -2.0236596294939413 -0.40262562021115467
1506 -2.3252623367804968 -0.2710688136401295 0.4316674396010678
1547 0.8608188577706257 0.9584487903065321 0.7633746157827282
1512 0.8996500736466444 1.895197232414736 -0.6468897716279084
1549 -0.22547886064251782 0.2840627178663076 1.5828598669424327
1510 -1.6944845044137933 0.2508676209897249 1.9284467774836225
1553 1.4122111570672689 -0.33702045866826263 -1.4311826427498335
1551 0.11870972626584662 -0.8708310246905994 -0.11750799190291898
1516 -0.4377340523311025 -1.0182863195158827 0.406100453640271
1514 0.28385427488972753 -0.7699086464341698 1.526899786383522
1555 -0.4005841422765418 -1.2485743860466125 0.8780129783402472
1557 1.1750054003051758 -0.0752419235119254 0.2068940121695237
1520 1.4678558450795733 1.1565372504788933 0.07010705834663536
1484 -0.7140917372351796 -0.8664443156228108 1.4383298670659586
1521 0.6747380368390908 -0.5210340309912255 -0.19556607200422704
1518 0.9071794481267521 -1.275938349026142 0.1540787023160732
1559 0.8354807595350753 0.8884718260456262 0.1295803304650913
1522 0.986249636679473 0.6180555475449591 -0.17769644066054618
1563 -0.23625745128933068 -0.6396815547754374 -0.8242538961590952
1524 0.8844741075097166 0.434166583088621 0.763975496009129
1561 0.8315451810638607 -1.6019297794906202 -1.1279668386390345
1528 0.5035850741445448 0.14762173403346454 1.5611785210864932
1526 0.7389279720952078 1.6819461372126936 -1.1834476520714357
1567 -0.6242112197922408 -1.1213525035213103 0.0952244012692209
1565 0.4577188414555438 0.1941535735158903 1.358297509319463
1530 0.013597157660571475 1.384077698414035 -0.6933054640347521
1532 -0.5373273880468519 0.28955446274167096 -0.6168387631086186
1569 0.4127924972270396 0.40045267746442603 0.7462635723681548
1571 -1.3990039252292357 -0.0108414797909496 -0.016206296856891223
1536 0.6946060537601508 -2.928794446846474 -0.04075406059486757
1534 -0.36538467349683623 1.2615932686159268 -0.685009532035901
1575 1.8199675072333716 -1.5568127296990721 -0.024373054426324467
1573 -0.7507193127096964 -0.11038276466955385 2.9769061836826585
1540 -0.9104701720509044 0.24114669827482 0.6835839312336478
1577 0.47906549263958426 1.6056320650934066 1.1480397861427163
1538 -0.45051149729103046 -0.6099774404236754 0.4191470848208093
1579 1.4697776147977069 1.5008135858443272 0.5042490171061503
1544 1.2398509476826178 0.39597612600085286 0.19065105618899328
1581 -0.6897481398802932 -1.7104589778034378 -0.35821141760823333
1583 0.28116774823671786 0.5367346253196202 -1.026226066577163
1542 -0.16605511558087402 0.5584928030994912 1.7013455489694695
1548 1.202983509084052 -1.5629810872512335 1.1131450374970695
1585 1.4629612041416027 -0.4319458950189065 0.1241173276305642
1546 -1.0707283666409104 0.7244290070708846 -0.21684261130726293
1552 0.2526670320961158 0.4464759141781296 1.4322774362241035
1589 0.11412933855728452 0.586865857568334 -1.0200837417714586
1587 -0.40975437218855537 -0.8907713500078699 -0.026491415498446375
1550 -1.843683745345901 -0.512588083260727 -0.10843768241586466
1556 0.28066477004782925 -0.30813535288643973 -1.3416836644796877
1593 -0.97516894165436 -1.4032278223474184 0.020292990524280043
1591 0.2169389769167028 1.6754755251044124 -0.5984557760236439
1554 -0.18618950842674567 -0.2168611989502404 -0.7717143548191843
1560 -2.1016638855920626 -1.6962452973048978 -1.197329057134872
1597 -1.7081665748762278 1.5743650610536197 -0.41243026753907797
1595 1.8067519784431854 0.4670918848365647 -0.16733885230111537
1558 -0.23091616605832457 1.1042380296236722 3.052475784518052
1599 2.276823407973878 0.19714745765777797 -0.1893229505507808
1201 -1.1093297397725028 0.8341592000087968 -0.0012731897204165052
1562 0.4935979006836101 0.807424104588761 0.1988545653884335
1564 2.792541435917636 1.5814745184376813 -1.2216192112111575
1207 1.167517460650656 -1.1308452430490936 -1.3301350721558511
1568 -0.12932467377260146 0.674382048761257 -0.1760201236860027
1566 0.8447830952991388 1.2372356511916296 -0.505349176887155
1570 -1.1701462306998933 0.8607178064228532 0.03370914844666885
1572 0.8135430347314724 -0.2644070618611497 -0.0902405994078257
1213 -1.078168028054025 0.6982755843040036 0.18330183442346373
1576 -1.0437134444758138 0.982263361483628 -1.434895167069416
1574 -0.6925409262944661 0.3411420021728728 0.7829174845845681
1217 -1.8256044912250198 1.5330971222129448 -0.5788910919840179
1580 2.5902616842213284 1.3599042529257848 1.1797595794392648
1578 1.5176101977874905 -0.0736679976733246 -0.2990806597971806
1221 0.3882481757952675 1.3441786417569614 -1.1205146990549342
1584 1.5582546697539357 -0.729104787018822 0.2942892415666405
1225 -0.38510958571150733 0.0026251088032267712 0.12615374684535466
1223 1.9577654294842228 -0.7451208830762758 1.7474493260196657
1582 -0.6411038519937892 -0.34597039778889094 1.7239634543456144
1588 -0.279743036206505 -0.772382099163046 0.26145320846521625
1229 0.9338040822462318 -1.2745082136058792 0.8157980429636357
1586 0.20790194340056148 -0.08754376815946659 -0.15960486841461255
1592 1.2235538027603425 1.614835117047937 1.68640101642908
1231 0.28633969968931283 0.28058641144805563 -1.8960144638644594
1233 1.5341857041632976 -0.25371995486693294 0.5777724837804589
1590 0.5457995409320462 1.4512565250260852 0.06554407541499711
1596 0.9541050076401105 1.553536481212647 1.3386930009164864
1235 -1.2872325312420752 0.9378795069308536 -1.5995083273286153
1594 1.3572061451091884 -0.2286500811658886 0.702304315939121
1600 -1.432648684584952 -0.14813906491533022 0.8179316255945691
1598 -1.0701984108529274 1.2116969199188559 -0.4352600733430257
1602 0.5112307697693036 -0.6616789458075866 -0.04166517028683049
1603 1.3106550954347713 -0.12104323369508733 -1.127632509173432
1604 -1.0763408561555738 0.9771103119490034 -1.4546579032030222
1606 0.855784323166415 -1.4223181799752997 0.15983195356417162
1608 0.2750721979389463 -0.13722536541806024 -0.5806316348978253
1607 -0.15345282868349963 -0.8232821382520621 -0.14640481311108988
1610 -0.22595514371555683 -1.168657151268761 -0.3443821953119747
1611 -0.08916706486454683 -0.1940771021557674 -2.5770700077053847
1612 -0.6272920377800055 -1.3338077324776312 0.5793389171456211
1614 -1.075841383168915 -0.300783503821369 -0.3222302656660984
1616 -0.011133894587204691 -1.5445599549418945 1.6601396015711354
1620 0.3336900034085335 0.4671502862273635 0.883333592663904
1618 -0.4974207824979991 0.5175940898742156 -1.9914405690756147
1621 -0.8491638737014147 2.1102117449863855 -0.7676003808731707
1624 2.051244673284823 1.162719025008737 0.2625806084922454
1622 -0.82557435859395 0.31427841155857145 -1.3523964088853613
1628 1.1827895541759015 -0.7293173527902789 1.178171149735835
1626 -0.6052772337585193 -0.7585430579193024 1.229825017552678
1627 0.42867185108211436 1.0687116679844841 1.153109905776731
1630 0.1018769061402062 0.7098506399653687 0.8353121286142802
1636 -0.4245065074976978 -0.5924801296773597 1.9866144745942362
1634 -0.9186172852690749 1.9200470992008967 0.010842589206810145
1640 -0.1008804909524662 -0.18818898947160104 -0.2448783443602286
1601 -0.011353635586017392 -0.5707158798060188 -0.2343256016595603
1638 0.2866285133092762 1.9463004616895576 -0.22115272205860675
1642 1.1200330521391841 -0.9681575711958487 2.4330458980498433
1643 1.3502903586487502 0.39558465268842596 0.4479142127824207
1645 -1.0077331354974193 0.4073536017315839 -0.18691710254908794
1646 -0.18368190511753607 -0.25844397719787504 1.9752363694584012
1647 -1.2748244859644295 -0.8168921311355432 -0.03909102085963822
1648 0.5663324624318162 -1.0451778726521632 0.19985218195104498
1649 -0.002615908615783156 1.8346494553135344 1.2753947355687347
1650 0.26838390462330775 2.275616865871757 -0.49388503951729185
1651 0.25259449528957967 1.5352562820704712 -1.7158158079527566
1652 0.38984689744536555 0.7879046618507822 0.42626434078272535
1653 1.04779359554408 0.8985812386028456 0.9578349007152767
1654 -0.6242420262192349 1.315863634218559 0.4647456937141753
1656 1.2968569718153868 -0.6758653401024323 1.1572785182587584
1655 -0.010800764818734807 0.03499503912868868 -0.38826316946356493
1657 0.5460966207256648 -0.07480521287263014 -0.17492805104282882
1658 0.752443863531774 -0.7213762000081091 -0.999551737902997
1660 0.7992333698047833 2.5102335144192605 -0.6945805742426809
1659 -0.1432949318993353 -0.4955869192356231 -0.7227341683558907
1661 1.1794284226592893 -0.136051099978651 -1.823295213487356
1664 -1.302609089042785 0.4373170305915149 0.4925389100115632
1662 0.21163058135579266 -0.7474644050072737 0.062257006817472586
1665 -0.6899136866442341 -0.5505654386151485 -1.168173820859187
1668 -1.0458131607496124 -0.8311233971804033 0.8562880788087087
1663 -1.3777967358290957 0.5056091340197473 0.47172430283079325
1669 -0.5222381823747211 0.38773094841460715 -1.1805259286800462
1666 -0.5833424303453499 -0.27528565836064245 -0.9516035103519619
1667 0.013990223389363593 -2.129379360228532 0.4547766438819851
1673 1.067865715518421 0.6669089217586502 -0.9213042270656499
1670 -0.4092949155830574 -0.1840036146362219 0.467410469750929
1674 -0.7252450771649634 0.6936273324258637 -0.36297633424662706
1677 -2.2192655118629467 0.9349815909033895 0.04266257140176991
1675 -1.0238024964848918e-05 -0.8301539482860605 -0.5277086694807664
1680 0.6958497299521922 0.716549146590054 -1.5338037418255113
1641 -1.4502347295330316 -0.22947328095526642 -1.7116212168443616
1678 -0.43765033428858824 1.1980901672171778 -1.5895887716686117
1679 0.6013360237903965 1.003628494816041 0.06336720696544917
1682 0.4062539371936812 -0.17990205218149344 -0.8943690719023567
1683 -0.8058553011915169 -2.180274065538838 -1.1346718978115922
1681 -0.5911607062589529 1.893737290536997 -0.8321510193411384
1685 -0.11787462031133053 -0.4597484913069472 0.1267757610134039
1686 0.5771553053680183 1.3072850079135867 -0.6800070421051527
1687 0.9861864246965343 1.4250139292833062 0.7394814344573295
1688 2.0488556467058356 0.09829935738027537 -1.327366802507747
1689 -0.7416563947852784 -1.7382091730299651 -0.04476790797016363
1690 0.07276173146556159 -0.8341323226688852 -1.3991495870886022
1692 1.155281866267543 -0.4988122823328606 0.016762864261775985
1691 0.9932514460485081 0.028985747671026296 -0.7851052436498358
1693 3.526996899427533 -1.0981689097547171 -0.8871531096774672
1694 -0.18218976498673586 -1.9384521714838128 -1.353247741895961
1696 1.9359193395233107 -1.4618082365060039 -2.137577987277776
1695 -0.29907559974271225 1.9541292359758802 -0.34861305077812627
1697 1.3708559230491975 -0.29804368503537904 0.7745445701703448
1700 -0.39921965165638973 1.1326613278797062 1.2828862421229605
1699 -0.9877771764613514 -0.5527522898241992 -0.8155864565974044
1698 0.37886182793962403 -1.4467171406646484 -0.7089481492995988
1701 0.8281090058930942 1.0750128613118588 0.2595959880676096
1704 0.5212862885284307 -1.2130991922803962 1.1621826888017293
1702 -1.0833542095742552 1.857272693807274 -0.5250994171817415
1703 -0.24440845945588 -1.8812822569173813 -0.4200374084150985
1705 -1.134484338577048 1.4427379191369718 0.36217146829803676
1708 0.8080871685303651 -1.3388146913184165 -0.15477892194746073
1706 -1.2638336008677968 -0.6045384589723087 0.7609622119434956
1709 0.7677493778830807 0.4637148115142576 0.043223295442541776
1712 -1.1653526100540126 1.0523264151991591 2.15339292846022
1710 -0.30242671461100856 -0.3667830023677489 1.5679637951642367
1713 0.2106379267589933 -0.5824552328033167 -0.6373974299134844
1716 0.37630238790696074 -1.291075274374245 -0.6190662519856933
1711 -0.07839247980596199 0.2444260924151301 0.7317786022243792
1714 0.45680338182239627 1.1468763025395843 1.176769947821187
1717 -2.268009130166802 1.5662844392358681 0.97530577392054
1715 -1.2100677972166682 -0.9388902618777546 -2.005556046221902
1720 -1.049699517451276 -0.7582345529792521 2.814180296414247
1684 -0.19802121166281408 -0.16685369225259092 0.3193803416203983
1718 1.1245922313240322 -0.5847982299993149 -0.2790385079837903
1719 1.0981362714773935 0.4708379051199931 1.3819307450491725
1722 -0.3220749802892062 0.6713283622459081 -1.2741624624854524
1724 -1.1015282518823997 -0.7292016604799862 0.040686304831208595
1721 -1.0276451514882226 0.5910813251041075 0.9928385436230208
1723 0.32606716135875885 -0.3053370086946013 -0.09842788664497425
1725 0.6746090452489666 -1.26223232357811 0.7913576207329267
1726 0.7010011938014741 -1.1504167391847293 -0.6619452202193769
1728 -0.6976637796398989 0.7312502440635152 -1.7423840288254504
1729 -0.9242250877109083 -0.2652804409527085 0.04787308005377227
1730 -0.7465245905323431 -1.697847320056826 0.09394070396758805
1732 -0.30428432574126296 -0.548602214389685 -0.0837268555864897
1731 -1.605434765550455 0.9095232974497452 0.11843724507285745
1733 -0.38398483867354455 0.5052908123756166 0.8069379747963786
1734 -0.4661522784799174 0.36894966388865275 0.15605752704616574
1735 1.5858175082592858 1.8368417818649705 0.1639283279091519
1340 0.5861034160608719 1.8616312676633082 -1.0696821607335294
1737 -0.21546113109156279 -1.704453980065788 1.564734374965858
1739 1.0735702508955325 -0.8584387806146998 0.7373743345821061
1738 -0.7649292044921148 -0.024317063452598375 1.1401944065598115
1740 0.05603384422484332 -0.14280615647814207 -0.01351484805073074
1741 0.6156157925734618 0.33318904662444426 -0.144328732825258
1744 -0.6539831292176727 1.235319412205541 -0.18333084330206895
1742 0.6293241944869518 1.0556862079419684 0.5358092055778647
1745 -0.13025472255163037 0.7029402263163506 1.5050807989254142
1743 0.5953857392149144 -0.4560486390135851 2.018187509279188
1748 1.4119939699141402 0.6607492717884307 -1.4323296653609165
1746 -0.4948053347109175 -1.6714823832842636 -0.5496009146433598
1749 -1.4635296077284607 0.3988924470280159 0.09872193462292887
1752 -0.4207258004433721 0.2786061449529402 -0.32535258115161936
1750 -0.3202933950761187 -2.4557405035878 0.24449623397369075
1753 -1.0143050205374302 0.007728020896964976 0.3186123087372005
1756 -0.25733768888263686 -1.4520549291686071 -0.2351786137682764
1751 0.38503577236623043 -0.39159393221965544 0.815876891105893
1754 -0.417012708586442 -1.0467818658734742 0.9459966894425464
1757 -0.7532361114218916 -1.761065030360471 0.9102319656160783
1755 0.1220609053591823 0.5877029829637967 -0.33012222696864973
1760 0.38004361590706 0.2514827909015523 0.9282566007359236
1758 0.11076365434310663 0.08733277084942603 1.7774039956630545
1759 0.49565796189606465 1.4702121959807648 -0.42004179624467997
1762 0.1468806228508291 -0.6269655946854662 0.879544063948593
1763 -1.481675994960688 -0.06132502801316184 -0.39492732045248613
1765 1.4399712491291379 0.5989337782979756 1.319125072402507
1766 0.26024209141580534 2.255798693306607 -1.2461309430011258
1768 -1.0405318243235724 -0.18202101466325063 0.3961447878075976
1769 0.4687607646683189 -0.6276086851181942 0.693853166012639
1770 0.3254401860289741 -1.8517032112074836 -0.5144670215125853
1772 1.2633931680420578 1.4710701262180157 0.8236507882422671
1773 -0.984180993663471 -0.24610656288696428 0.680341532546887
1774 0.5519300595472426 -0.5264272223753783 1.5169150990443785
1775 -0.7322719159999586 0.228571412668868 1.636818948015747
1777 3.8134185666826568 0.30090336322755545 0.09120115256974043
1778 -0.2248804634347005 0.4580856936751345 -3.3983382022270123
1780 -0.021549233154471777 -0.7093020812856695 -0.45709932979861106
1781 0.08427887219168818 -1.5207021238699432 0.4998681286164146
1784 1.5225334182463053 -0.6003515949472548 0.42406958403969797
1785 0.8748991881536907 0.38709091553224323 -0.3074649283573874
1783 1.0502565130955854 -0.7323119232441397 0.05409380355785642
1789 1.1631929910311227 0.4582126093590066 -0.17178566841339568
1786 1.412360729796671 -0.7470415157499987 -1.7120357301207876
1792 0.7450818664409269 -0.617181270376769 0.815236316271134
1793 -1.443029982042963 -0.9642887600078823 -0.7524888212336296
1790 -1.1279697476775545 0.2479904480891231 -0.8418861751166189
1791 1.188623024298805 -0.5097745116426906 -0.10707886621231445
1796 0.6423163998260836 -0.22913201215960943 0.0871033545132031
1797 1.0708431339756685 1.007151765189324 -1.3866547837881955
1794 1.0316721817079677 -0.854238596300462 1.779740331872549
1795 0.735574404960688 0.9721936509317827 -0.6939781754525499
1800 -0.1882056507043551 -0.7510026044300135 -0.07234231765644702
1761 -1.51502585729129 1.1199499667529618 -0.3501757778696729
1798 0.7604705177723123 -0.832896836559197 0.4627109377658107
1799 -0.5325213086331724 0.6783025531771647 -0.10681437763821605
1805 -0.7319809850827225 0.5380268390824761 -1.2492606494329137
1807 -0.10417194667847263 -0.747031139582373 -0.44285333022102397
1809 0.6024350573654416 1.640705816018163 -0.8251608375410814
1811 -0.7447361115887426 -0.8193076099931627 1.3237951007617899
1813 -0.6681729741474948 -0.9535301680730505 0.5618892902318391
1815 -1.1963409158952583 0.08956733728610966 1.5848688721600526
1817 -0.14665999024960405 0.20561800979256417 0.8366771261087765
1819 -1.0870072772154338 1.3280840458751657 -0.25350971314721754
1821 1.4121946307104465 1.391212697538329 0.8011480445582629
1782 0.3031427101665005 1.2784562427314403 1.1197563838763642
1825 -1.0439731689176868 -0.5392231211273109 1.1148953283240435
1829 -0.0954123480341996 -0.483840848472707 -1.2058661957979933
1833 0.7926548087742861 -0.7218087406216844 0.13888118978844335
1831 -1.4907371461261216 -0.37632943289133974 -0.07014064502546383
1836 -0.46042042149537526 -0.32444761423249474 -0.27507967367898767
1837 1.342439061003314 1.28880601831097 -0.4196313542864389
1835 1.2018069447971056 -1.7604780318691766 0.12092786808060121
1801 0.2769131042867706 -0.205625809627486 0.6153769975254899
1804 -1.5541762816741522 0.5041888028627839 0.3762864054969652
1838 -2.028522172053514 0.8599204599457819 0.7441708446172793
1839 -0.8765959821060869 0.11116714987333717 0.8375848225664837
1802 2.518296533203837 0.5512805905213488 -0.7890455122429757
1841 1.4748309580504466 0.7977894283842096 0.29178576286776603
1808 -0.1324494707011802 0.8371005205536444 0.35706304566136243
1845 1.1804970100899796 -0.30355138754776473 -1.3165028698664054
1806 -1.279043964740616 -0.5133062478862807 0.9373689676899627
1847 0.9301419537699572 0.07790571663737884 -1.2018492948763528
1810 -0.3615082563578203 1.7230781305264407 0.8237852395990684
1849 -0.5325176027169094 -0.16344721666888948 0.6587454031423969
1851 -0.3931035191294276 -0.18430159027308393 0.9640964478269676
1812 0.48683739886666777 0.2302749768097492 -0.8186936688942438
1814 -0.599383666087569 -0.5588556634598277 0.7532899257532403
1853 0.2396650688900583 0.0447696099315407 0.052238798900146044
1816 -0.9251710907345196 0.13935231110419694 -0.8750661351393387
1855 -0.20200581829872624 -0.5268002018216836 0.8322282826769818
1857 0.3120003860716957 -0.5244020432949408 0.8967790404288213
1818 -0.8077444684839659 1.384687462379167 0.006674495452488292
1820 -0.5067793026011417 -0.7947521334012198 0.990438487023668
1859 -0.8864869350501727 0.662772778530957 2.1700414782804014
1861 -1.8794319266484225 -1.0403479843573908 0.6807435622586675
1822 -0.36718240817518527 0.18569401489571208 0.8500657884384668
1863 1.5065224498173664 1.0854475054792951 1.2502964367505973
1865 1.034883790359677 -0.1896124524965419 1.1196967445684565
1828 1.059047126336466 -2.3782214678642917 0.9821547589544155
1826 0.31069037766451163 0.11676073227218137 0.0006261684441685269
1869 -0.6562340712343689 -2.322114554216484 0.49323483846552335
1867 -0.3096425859270284 0.9087540973998889 0.34523550946002285
1830 2.5038363337682674 -0.6627452074185506 -1.097198409293892
1873 -1.1194357484288373 0.6085281832731804 -1.4910666756354523
1871 1.3542750136477892 0.9711456458952822 1.2620348531155783
1834 2.1563156961885483 -0.15387660175708442 0.10447708813828967
1840 0.994598955914304 1.3355344225743502 -0.4962005921696722
1875 0.2368939532150446 -0.6395865452874169 -1.9367285197150184
1877 -0.1986329463268171 -2.2288955042431704 -0.014930989883284408
1879 1.04558285450056 -1.5073551350679528 -0.6707362903653601
1842 0.5244619474342973 -1.6715562320842494 -0.6602770750158005
1883 -0.12376815661505707 0.9272656364362205 0.38302275450834683
1885 0.05780099167130633 -2.307382544231126 -0.7397901497363405
1846 0.933686020891693 0.6826025067587372 0.08365259953019323
1848 0.2618026250577677 -0.3705136587230697 1.4970231192251713
1887 0.6300107447681802 1.1026272227738863 0.8452486309577204
1850 2.174432468642037 0.027082112970189795 0.6151193201146423
1889 -0.6982863169227252 -0.07670470808369906 -1.579657698526819
1852 0.43047547951312615 -0.35923893692296305 0.638777512254454
1891 0.1770114709783498 -0.34366041730008684 -0.9062440597941321
1854 0.5621283910375586 -0.8160554899495256 0.21226265585538595
1893 1.6259418816067372 -1.285387475104844 -0.10379682751092013
1856 -0.7478148903139855 1.302393157852875 1.677704650686346
1895 -0.30480779040339373 0.7990665663019905 -1.0984316751257808
1897 0.20754179678703025 -0.16250818526894392 0.683734982954119
1899 -0.21565092660856047 -0.16031542995714637 1.2162339226727945
1860 -0.5579029885627462 -0.6565532431609572 1.9166748472402897
1858 1.8588860061818635 0.6588019030989664 -0.2684436693068473
1901 -2.07328764501427 -0.6547159337337647 0.1254649433553389
1864 0.4194789463428444 0.9974104310666196 0.914512531086621
1862 -0.5459600638155371 0.1616810351646381 0.012117318565113116
1905 1.1142336895751679 -0.6621337257971386 0.6684503412496051
1903 -0.3116021024522235 2.081402648976257 0.29338350861751894
1868 -1.2587072909788684 1.4181498535891583 1.3521090346574938
1866 -0.028535434982965225 -0.13957622847758452 0.15625031882652124
1909 -0.29756805141634446 0.9207859042182726 0.5403456310335898
1872 -1.6251508619897477 2.4662010005322346 -1.0781013207938328
1907 0.2173736517334434 1.1371694195696995 -0.49490591763202735
1870 -0.8082383611143565 0.5729075042371348 -0.5152025207283967
1913 -1.1961532078651589 0.12576119104396014 -0.2684895481743163
1876 -2.0924038334348998 -0.5444099305332243 0.8806458792924929
1911 -0.4907427305764373 -0.053907597287902995 -0.2721815877896922
1874 1.448631403583505 -0.32196018552090266 -0.5624677736801903
1880 0.8617857666111521 -0.8235391841507871 -1.2420267670450191
1917 -0.7199948510802245 -1.4811914405610807 0.178292343303762
1915 0.5916558149439898 0.6278448072842308 -0.3787106580054376
1881 0.7752453249306741 0.5778086828865905 0.3160688028616313
1878 0.667738820349468 0.3012083838201057 2.271579483984815
1844 -0.1734101941133511 1.0264993208967625 0.1472012268137313
1919 0.2248512642339883 0.3338936826601473 0.8474793766493451
1882 -0.7774340673315033 1.0911234739124231 -0.43877616443722817
1923 -0.6502716847352056 0.8890715983373696 -0.3127480178481841
1921 0.7715109737884799 0.35303265325825034 0.12122645380431045
1884 1.2407575082443458 0.006504794299500141 0.8733237832827799
1925 -1.1467194617890435 0.1902942847033011 -0.9827324717100839
1886 -1.7179254561116952 -0.9104964093894576 0.2964506064098462
1888 0.15726965378108568 2.0980251034240447 0.647980942143312
1927 0.9131128714627995 -1.960425849269554 -1.527934250034246
1929 -0.5886775796055915 0.6047370824215158 -0.4743679977138817
1890 -1.092088738212313 3.230236485167829 0.8765712165213805
1931 0.45562178924194985 0.17149705173855773 0.9109411918315989
1892 0.16914592220902366 0.11542507984405292 -0.4726616212544445
1933 1.1240910397757682 -0.16183109064071982 0.5529726654144616
1894 -0.017501054856550888 0.19514806004445726 -0.17224526596300307
1935 0.6762988674194906 0.08295362267855215 1.6507608140146743
1896 -0.40108989942510587 1.070196910880444 -0.2471523405112843
1937 -1.230140042869674 -1.3221939066790998 0.7647066878091328
1898 -0.8992689956290019 1.383885157744983 0.21204247115222394
1939 -0.07894666747405718 -0.37671081384225474 0.05378837323161771
1900 0.972459281296899 -1.403895248673227 2.014373196781583
1941 -0.3270610793058242 -1.2579085450165692 -0.08866619869291278
1904 0.06832760390943102 -0.21558762934514572 -1.7324909034720166
1902 1.5497388311973157 -0.3201461922410733 1.3222380059931875
1945 0.06095950071478083 -0.11889209964063353 -1.2438574262310018
1908 -0.9415854897333442 -0.6915215804201917 -1.2673597997445742
1943 -0.45882830922469997 0.20610174350412036 1.0048728652986414
1906 -1.6546979475718322 1.2378711897767996 0.872874607068982
1949 1.7869287905528943 0.3040477071536524 -1.1566969657576127
1912 0.6339720113392289 -0.6326612118541174 0.3764763793366816
1947 0.32613801385904784 0.2978841559649015 -1.4427708698860222
1910 -0.25657222554491826 0.10767224329669772 0.48039060658746785
1953 0.06061710525495979 1.6062886449325222 -1.3956533548375316
1916 1.9009560835341508 1.2874180666525454 -1.5657432924097607
1951 -1.864968939626748 0.23865415962048064 -0.22610823424755228
1914 -0.41263079250395907 0.213698359259723 -0.389655145405918
1957 0.11922355615082603 -0.6226271883775393 0.3264777611660374
1955 -0.6148467765999518 0.6821116095090871 1.4766791984308825
1920 -0.6288308461399192 0.14495787009108152 1.722892047861583
1918 -1.6840939289230128 -2.011018742175399 -2.6074716261058843
1959 0.657752836353053 1.0945532957470099 -0.9597846709144108
1922 -1.9345560915049216 -0.7644308639931006 -0.35692541530173233
1963 -0.1453740606291736 -1.6322407363740847 1.0213949233431783
1965 0.6539419475035071 0.5110404051873926 1.7075577995153461
1926 1.0874287611503222 1.0945730345225682 -1.6909557995037579
1967 -1.7480798923683984 1.5100512899446037 -0.37456871403425746
1928 1.564677658830831 -2.0886870916217433 1.0183914743801072
1930 -0.06382860112385902 1.6574550166284796 0.5008610942750465
1932 1.1374772220488234 0.33643800202611024 1.3012827376366667
1969 0.15492354042306192 -0.2410480594312867 2.0057529305582706
1971 0.22284287322320284 0.801500594722251 -0.7007541279753831
1934 0.4773025242843465 -1.25982099971505 -3.02468190969744
1973 -0.4505602412124684 -0.3936916434659241 0.09866004827567305
1936 -0.08484338843170586 -0.8520545482246924 1.6839219512397041
1977 -0.18179655616803947 -0.009188842461664069 -0.5022391635219765
1940 0.40191213136944165 2.632370618367036 0.7827859419108953
1938 -0.2605531353620618 -0.235068531822498 0.9965064216926002
1981 -1.2616308946150898 0.9716912053539613 -0.04681552032748869
1944 -0.9614165799748374 0.9399593683386902 -0.2521000065066978
1942 -0.04869354366232974 -0.5911461879540026 0.018793106793654844
1983 -0.12058920559761158 -0.5960503583504894 0.6562502383891723
1985 -0.1019506322181211 -0.12162365651526658 1.895894496007465
1948 -0.3016069851098598 -0.609116458971229 0.6347429543906487
1946 -0.14464407314910607 0.28552110956902377 0.18980540815794789
1989 -0.30900182570360957 -0.21912461778265407 -0.036704275200415214
1987 -1.618686255719219 0.22563052229169825 1.7311831439730878
1952 2.0512865235559516 -0.10167007588643635 -0.4923389381841289
1950 -0.018852736597985646 -0.33626987914463446 0.6067837171771621
1993 1.1097708614025903 -2.362911336153227 2.8534865408803656
1991 1.5028832601078734 -0.07037364773258317 0.6273296361466438
1956 -1.5206921610147806 -0.15883306512919598 -2.2428126434632567
1954 1.8717521467226386 0.3386472110421618 1.2257412945108248
1995 -3.3658158444609056 1.4388221317151597 -0.553417828785731
1997 0.5760538108475678 2.302163391166372 1.2934007619859322
1960 0.28197978832017023 -0.1408912963528375 -0.3405182165947056
1961 -0.291415655936144 -0.32785662969306917 0.45277650650634677
1924 -0.4974747295092412 0.8543937790439445 1.176265750420104
1958 -1.0883348541800772 -0.2716986093472609 0.42647632370157973
1999 -0.23224569667193412 1.599988373291696 -0.4604836265731699
1962 0.26693940397475036 0.1949043077959922 -1.0302565463999749
1605 0.578516019109897 1.1167436918925326 -0.31411010382375115
1966 -0.9935786289955537 1.1163149698822041 0.514567749244022
1968 0.9666502326966775 1.7315299606587753 -0.2319972268127845
1609 1.3148606059723853 -2.7216812080254003 0.13769065258812577
1970 1.8057002373105426 1.7586667720190812 -0.690399559180198
1972 -0.839040932689868 -1.555581616496995 0.22743386106592134
1615 0.3570043462392038 -0.8377904221488267 0.29343410999230674
1613 -0.1902720007203528 0.2640305499951599 1.0522361136574914
1974 0.12918235376650855 -1.363385712396476 1.2534505916105265
1975 0.6438256390807947 1.9136508455545058 -1.2825000474018975
1619 -1.1098491106124662 0.2765417644885499 0.03040117724143778
1617 0.4115796447088055 0.2880320535049402 -0.8955299587080549
1978 0.2472774296311363 1.1341692852612848 -0.7816777057402734
1984 1.5530753580359604 1.004967344399347 0.22886468458543063
1625 1.0103532195545588 -1.311182159071477 -0.40123596393570615
1623 1.9542968909537595 1.0311615431333372 -0.08413462606184607
1982 -0.8505791530222327 -0.1323394295022293 0.8926801118815838
1988 0.823422087240395 -0.7945003788232045 0.5094613782517571
1629 -0.3512302884435209 -0.46117518218775727 -0.4879710148830407
1986 -0.014661339622447101 0.24363395019803863 1.083779374015524
1992 -2.3789753934143847 -1.2457204016981038 1.1707018173999093
1631 -0.12481018131076195 0.8004351179027992 0.7031383307814707
1633 1.299389920842113 1.1605036395048964 1.5531179003118896
1990 -0.6091178421054825 0.49782768399867977 0.2842653155051172
1635 0.6417109157860391 0.1723085956824085 -0.4216389779654603
1637 0.1272530821833391 -0.3010785416674504 1.369844685310666
1994 -0.8473845630356237 -1.7868246086472748 -0.6731849642299946
2000 -0.4765246496349294 1.2579245475526686 0.6933702172296647
1639 0.7186641715114086 1.2018483046000243 -0.2001624413120964
1964 1.6038146280920231 0.316215388512302 -0.6301329424284173
1998 -2.1447729954813353 -0.39825635857101627 0.14673103189859843
2002 -0.5700646566200319 -0.004663312476613966 -0.8961526475004142
2006 -0.7646005021436536 -0.43100476368229323 1.425378780175503
2005 -0.3160316426519386 -0.32938962372389113 0.10169793162024578
2008 -0.07595009087576943 0.5238582128877651 0.2817729681538851
2010 0.18871853732203975 -0.40637963335570665 0.34021176196283764
2009 0.36170829686123823 0.9048822084838801 -0.3319751468140018
2014 -0.05684304274015073 0.5436380273495058 0.9507633031527453
2018 0.644633497183843 -0.5793120296012102 1.4768760522688216
2022 1.2937802507577554 0.048377578894994125 2.0663527406353546
2025 -0.07271652034668147 0.7248739231759653 0.7356060283430349
1632 -1.3702826988131542 0.47817064537362775 0.09464404893882485
2026 -0.3384240602126276 1.1452322775405102 -0.5787625697741474
2029 -0.5750833639357313 1.4941417686905147 -0.4136258722750714
2030 -0.6022584472565935 -1.8920890686544278 2.0641330170737633
2033 1.0763262050449895 -0.6348147178140155 0.2591214698122082
2034 -0.6383718788666233 -0.8899075316141571 -1.022109163826158
2037 -0.688011482455147 1.0129241950667418 0.9957113149629262
2040 0.2889036658911746 -0.12896929211961786 -0.29837707268100894
2038 -1.8112859141728188 -0.7968037653113527 -1.117285184053348
2039 -0.9900784244001509 0.9176799081000102 -0.47931217385565805
1644 -0.3376499368950414 0.8496472154173998 -1.5089696990521986
2042 0.01949447319337176 0.25224632985927664 -1.2918901658898947
2041 -1.3423589736029358 0.2076125821612746 -3.3230074212518286
2045 -0.6915148908183686 0.011792308573374414 0.8592471579923276
2046 1.0527510314658577 -0.018487634736846007 0.5048904676431859
2049 0.09707044846883703 0.35281918030461606 -2.6130258941815985
2050 0.04637458106600404 0.18021708455754168 -1.2208764203693234
2052 -0.6215205017259363 -1.1569971583812364 0.4639911650257969
2053 1.4441044042614481 0.10909672842270811 -0.30606947885614433
2054 1.0692574740924354 -2.580654682339208 0.4743662528391474
2057 -0.18581692062008567 -0.44199761888939354 1.988794288599511
2058 1.2210816451005904 -0.28575418918518913 0.557409303433455
2061 -1.0092628418033323 0.20402457286809378 -2.051823281592537
2062 -1.9523136161488448 0.23392954495604465 0.1366978931492263
2065 1.1577603159253849 0.5739335055666169 0.7270133982781855
1672 2.17870575385747 0.8939588773494882 -1.585401103802665
2066 0.7534979291926083 0.4393852869761775 0.2498499630026969
2069 -1.8319925772490524 1.4423456596880755 0.33939699820350644
1671 1.716410741627818 -0.9128673826919176 -1.3886795582404494
1676 0.40921868635521613 -0.36317752369046563 -0.051148608378157955
2073 1.2228251134213202 -1.2357525681583454 1.4492221653382191
2070 -1.5659643438242836 -0.41959546376004914 -0.31655117279102246
2077 -0.8956974387543353 -1.3534266731322815 0.14411845266390852
2074 1.078077180078884 -0.46742854001876105 0.1811868234859992
2078 -0.21653516193813463 1.4452987287844816 -0.19853011161997827
2044 -0.876797615604002 -0.44068021011813613 0.10332452524254584
2082 -0.6962919885260571 1.2637446399716197 0.05035847817622469
2081 1.403593969106492 -0.10613433522451735 -0.5040566407157479
2085 -0.07670400016715707 -0.20582346256719117 -1.0796346586835144
2086 2.0919627820671898 -0.3407806723292326 1.2457704283931035
2089 0.3821892075092309 0.462889606777953 -0.16191945413643555
2090 -0.5729917188451761 0.006645923167688302 1.1311357062050258
2091 -0.4044332345045819 1.646176179218709 1.9499274877877095
2093 -0.6547681679570292 -1.457175755795987 0.12584294405594848
2094 -0.629373590964418 0.15990359453085637 2.0702439590741384
2097 0.34733064946869496 -0.042955993698094115 -0.5329217050807665
2098 -2.696706355770012 -1.2444848703211229 0.2913141971413146
2101 -0.627925888075593 -1.3400429205171198 -0.24858597265156662
2102 0.4812277787427934 -0.07449294408890633 -1.2120136933774472
2105 -0.40794812271039027 0.8913769904797793 0.054610948867565005
2108 1.1309766529036538 -1.8422288427188316 0.33791539285045946
1707 0.7637240877813966 -0.2017948277375559 -0.5292417694821059
2106 -1.9126181168273082 0.3248262016636318 1.3376514725836715
2109 0.6079316250077428 0.7532651237171469 -0.14763571554540814
2110 -1.8245012037612043 -0.7677311237137446 1.409977320924257
2113 -1.5772390796413873 2.0358911786504956 0.4336269288923193
2111 -3.7128821996983223 -0.8511893875826959 -0.7575636473943353
2116 -0.14368180708834635 1.1959098892752837 -2.010485735786175
2114 -0.25627754283368887 1.898597581392365 -0.03993969330118515
2117 1.008617979500374 -0.09254013326305047 -0.09706287003432817
2118 -2.6957999317810644 -0.6288248090104164 0.21584234787776635
2122 0.1139679351632648 -0.4822856252822089 0.3011287714170082
1727 -1.4322405959319566 -1.0027880052727818 1.2184587456923568
2125 0.9026914549758861 0.3878997608588088 0.03996194109307868
2126 0.8406220789723378 -1.0246829078099249 0.5713321541209567
2130 -1.8134949109704284 0.6272486332407822 1.7758191842725177
2129 -0.564460268019968 0.18106648805858339 -1.0148202502279782
1736 0.5751210202911075 -0.13102320067300682 1.1616739251239077
2133 -1.5301653503552937 -2.377408888165767 0.02087237710883934
2134 -0.6113298692551868 -0.4436967931487404 -1.1234892802760257
2137 0.009002998936588248 -0.34957756401720774 1.3847347229951252
2138 -0.2092421438965353 -0.4626894240643989 -0.11652606038712149
2141 0.6256302754684174 -0.17254062386202992 1.6500749374824024
2142 -0.8284049146755573 0.5441113924556489 -0.3040755713192368
2145 -0.22831802869825618 -0.4647887569857156 1.4572519829920298
1747 -0.709981828145019 -0.9598865154103057 0.5560846590245446
2149 -0.6526095408273506 -0.3103891973067926 -0.8672614535994865
2146 0.01092081528545372 -0.572979405111749 0.5864461064959322
2150 -1.5671345047721263 0.8045322408748256 2.5548508428843477
2153 0.6050877761155442 0.3753168113445297 0.5121311076404935
2156 0.11461695475435361 0.4066516817597273 1.4774305984474305
2157 -2.5368668074460428 -1.1971524978206585 1.804625270547832
2154 -0.03977917952557824 -0.8659665444001263 -0.8568621356477203
2121 0.928661529360308 -0.9406313302583451 -1.7727637510064536
2158 -0.22316427958660093 0.7947821819788758 0.6074013491770154
2159 -0.39644412980401755 -1.1426120918100764 1.7124346721939794
2162 1.6951773164352315 -0.2217460056835759 -0.8564186161251224
2161 -1.557389734790099 -1.4671084524715032 1.2496615259571922
1767 -0.08271672999646566 -0.10483255036487121 -0.1500439559643349
2165 1.381644917732636 -0.7821278471301361 -0.52579438585669
1771 -0.6347117525458604 0.05194506548322304 -0.5327298274361248
2169 -0.3135021144154231 0.0033038429496709556 0.41949244826609833
2170 0.3761602274363342 2.700246235689884 -0.9568756001611388
1776 0.8892025302444307 0.14760244834718486 -0.8287573659681118
2173 1.8891246850105907 -0.07751872909735084 -0.6023207526997469
2174 0.02837933539745351 -0.22921868682054983 0.7942243622442954
1779 -0.37956048413687615 0.40458824213442707 0.13274729228527388
2177 -0.9483682644731779 1.0344875324807734 -0.6113487509893338
2178 -1.8497381254709313 0.6147253685981131 -0.9696338710485434
2181 1.620046786246364 -0.21644007401490073 0.7491039477158801
1788 0.8360575196973813 -0.8375838370297368 -0.16944731190224946
2185 -0.8562397309151072 1.5299210178551443 -0.6029091590986952
2182 0.2698645552015704 -0.9993003515919844 -0.4825395394038485
1787 -0.17321626318878244 -1.360999265061784 -1.0269316450545192
2189 0.6136158916941241 -0.19249825993303488 0.45493016804411307
2186 -0.37031330231102316 1.029000096654211 -0.6013398050927108
2193 -0.09778803044908005 0.8962764493247182 1.333355088560019
2190 0.8522297438424579 1.0663661686060644 1.0599013955508005
2197 -0.7971411780097867 -0.31874836084036373 -0.7644556616446503
2194 0.39962496040181095 -1.1699613779853895 1.433343962064695
1764 0.15751886581779018 -0.441891385626764 0.067893685414442
2198 -0.9221846540679686 -0.3609363515960339 0.090570221918105
1803 0.39680849015973557 -1.117844569386892 0.43640178547176695
2201 0.9656791472169384 -0.21336871038552613 1.4160719675810858
2166 -0.8356124491564579 1.1067841931922577 1.7109421166189143
2205 -1.0253103029879815 -0.09355658733699905 1.764124102630429
2209 0.6781927914360821 0.20925784428943922 0.47384392762690497
2213 -1.2453055000929951 0.4329177778324474 -0.12430582145250653
2217 1.899797883724867 -1.0290848438897928 -0.9875262358164572
2221 0.22193247340045286 -1.8230313810523027 0.30155148250905206
1823 0.6212573811382066 1.3031558366142841 -0.20595772077367544
2225 0.02290838605314627 0.5335723717441702 1.2631366034727392
1827 -0.7349928007594312 0.4268323885276087 -0.6924252384164099
2229 -0.34297826504329315 0.38130088744188145 -1.9737475795864374
2227 -0.3631174540085274 -1.4327550965999016 -1.4899672604891063
2233 0.785305253112409 -1.8532019701046039 -0.5596087256139122
2237 -0.34258076874331855 -0.3967601030737084 -0.1230796812792251
1843 -1.9814297236940412 1.3980805723482048 -1.1942293372758748
2202 1.151608239954268 -0.7117741910867442 1.3636738698064461
2206 -0.21210006190981853 -1.129782581639012 0.5482818989537046
2245 -1.2003843039129658 -0.6239583994701349 0.31093304446130354
2210 -0.618625650757314 0.1700187763970837 0.007687802594487124
2249 -1.389865605026043 -0.17424118225660828 0.5200875885278728
2214 -0.8356750535807675 -1.199604247729991 1.2097681287044386
2253 -1.7204686658646748 -0.5800900764132396 -0.7827443919534817
2218 0.9754363503477874 -0.16474240133673013 -0.6844449296980503
2257 0.17540751847509126 -1.1958007626250204 -1.4247348451169575
1824 -0.3161688231838814 1.5867871648058305 1.706024161298702
2261 0.9008175301557994 0.06733574403960778 1.2451649663074262
2224 0.8749192977223371 -0.16125847138551913 -0.10817270462670431
2222 0.2946849811390206 -0.6919543909619008 1.7707339664156836
2265 -0.46910308702001025 -0.41345571584518553 0.1509877923555368
2228 1.481274705956294 0.6798500564385037 0.3871608860776072
2263 -1.437976099446341 -1.1583628645654225 -0.39767601698861516
1832 -0.09271688976535283 -0.40084517535279607 0.17566038818624913
2226 -1.2312396835133335 0.4642769734673184 -0.4910598776725
2269 1.4343734857894155 0.18598088752685107 1.001912909680312
2267 1.6298120054601044 0.08312975607080204 0.8067856180655961
2230 -1.3059458732315556 -0.8086678811062928 0.045171961686451635
2273 -0.44778746276283954 0.06760411700141443 -0.14683035610208114
2234 1.0247934280877111 0.8295378081889155 0.8516704909193736
2277 0.17636477975270093 1.9617615587681259 0.10104606352045271
2238 0.04907203135999716 -0.7941673796812496 0.13408239003886213
2241 1.3748578736976056 0.2701097420096696 -0.10636942805379639
2242 0.8312920027642954 0.0610321760296195 1.8495621519739749
2285 1.8964977985617237 1.5635645937167801 2.1818383754613
2246 -1.2239795857439935 -2.3101706560147828 0.6982383136807694
2289 1.00111645273416 -0.3814289382818782 1.2379090026007027
2250 -1.3576835735429478 -1.3719482805733334 -1.9361212120476472
2291 0.8009234032450097 -1.10513591635771 -1.9689826120748724
2293 -1.4031663362156441 0.028429442300759306 0.3802822203806922
2254 -0.29522571152867655 -1.546832430224855 -0.8129355173058488
2297 -0.9349423492349553 -1.1065538926574707 2.2137998682237994
2258 0.9189450238373065 -0.16477275848889478 -0.7205409019970558
2301 -0.030433436232374402 -0.547427293921137 1.057650731092253
2262 0.22736509566499197 -0.3899693732512232 -0.27430676367859463
2305 0.2819073899046181 0.44753037743928953 0.4881358862559287
2266 -0.6419542304645266 -0.7691072858720985 0.42513319508793085
2309 0.005920512226898228 -1.2479709123669989 0.13109113247204518
2270 -1.1715786596532909 -0.3309086747385749 -1.857904606329458
2313 -1.2529855901679108 -1.810537802274518 0.3601954866153726
2311 -0.8656881561401073 1.324732766645677 -0.5384046566289021
2274 0.38683670094257616 1.591701931621062 -1.2047386260704247
2317 0.529568066372401 1.0395580756041778 -2.1335151343055463
2281 0.4165852437313855 2.5617320278727567 1.7006691810890107
2278 -0.17649569451555427 0.7016946210255085 -0.7167550081687494
2319 -0.02378053587041335 -0.11282182068392471 -1.4170295074230985
2282 0.06111416466855106 -0.15968756877106444 -1.1394795523352672
2323 0.12352534270670952 -0.8659747147773089 1.5598308705485002
2325 -1.3793418336330943 -0.2962039099568228 -0.02512114406050427
2286 -1.0440321969017048 -0.5699252366323444 0.11206695813450425
2290 0.1713463566771971 0.5063274834263629 -0.8994947245893523
2329 -1.2378912322718818 0.41211376140127104 0.11691227737026236
2333 -1.3616145256212548 0.2712136173265578 -1.6646845523685514
2294 -0.6380364388925387 0.5608057957785185 -0.6955853229230197
2337 -1.2312348344852653 -1.0464020435457282 -0.3982541091628216
2298 0.8185947924107424 -1.4307272329300247 0.5890881390287649
2341 -1.141868496338845 1.1778349745990078 1.406358287514281
2302 0.3786408308355916 -1.1592867523135035 1.1654352267917765
2345 1.943227452495718 0.96649585060264 0.10445378690809526
2306 -0.8580685738577328 0.21275435737879062 -0.30615983786351364
2349 1.2252097744613366 -0.4757165779545994 -0.17256202235944365
2312 -1.2340534934871599 -0.21480681466168644 2.0179157660741502
2353 -0.8325308362863916 -0.6871116748445201 -3.826789290809517
2310 -1.2858911385834326 0.38937471666729545 1.5370142102864957
2314 -0.8468174592673557 -0.4188816538754504 -0.673040016966667
2357 0.5891982946458211 -0.9845005754974414 -0.08766952234899399
2320 -0.4392516101140226 0.08598788598725118 -0.904083000504868
2321 -1.4320147429331542 -0.6132663543394401 -0.27378005411605577
2318 0.2947787890824442 -0.8715344702841109 0.990104280778668
2359 0.5781050268838707 0.8761814825794314 -0.9640694168900953
2322 0.667055132763543 -0.15418848499878132 -1.580950248442084
2326 -0.041540397461707526 0.8024562154008875 -0.49858959384337437
2365 -1.5065490477371584 0.12528559486547236 -1.0497913016099847
2330 -2.1499927702462114 -0.9784720674905044 1.4338560436477619
2369 -0.4618898835568808 -0.546828577070412 0.7455731127721035
2334 -0.1440097971792514 0.4631665831586369 -0.8290226768919505
2373 -0.7760961553525597 1.5751204313484433 1.6633014917934368
1979 -0.4473329925257962 2.8324335556509865 0.4421025117396859
2377 0.18839408108074915 0.977307336998342 1.2724944512853924
2338 0.8519210656694185 0.023773694502255742 -1.0474121480528886
2381 0.1435257237580081 0.7287533259990561 -0.019824508265481638
2342 0.37556755025221106 -0.11240827542214839 -0.22739912075669802
2385 -2.0206443528877225 -0.40050833491742444 0.6534919219871854
2383 2.6577318228611033 1.1977210630409825 0.4698017043174889
2346 -0.5650702658008205 -1.7074163111732557 0.3344059390502851
2389 0.022271972839711968 0.10598582794409969 0.7255367199304897
2350 -0.939360916641284 1.0183724307312387 -0.8930265804363493
2393 -1.5657343951912646 9.70541906145833e-05 -1.1971811015932898
2354 -0.7790156241429714 0.34458189083425955 -1.0012645213292595
2360 -0.07689783201745869 -0.3388866499179626 0.4146189595752624
2395 0.22335602125286189 -1.9703052700718853 1.9417076416548442
2361 -0.3948941207272747 0.6531377208474729 -1.573197271853702
2358 -0.2601046834715406 0.12731979683507802 -2.3374484132824547
2001 -0.698534234405357 -0.5266555748950836 -2.0132166626949806
2362 -1.0407626548849171 0.09973461412716707 -0.3904023087316609
2364 0.7297531938938717 -1.7574851734525756 -0.7004596155400127
2366 1.271363625700665 -0.7894486858406587 0.38769023297527
2368 -1.8168181070720761 -0.14963190142855964 0.5574027603556723
2370 -1.1949282493649924 -0.4074414939725538 1.378863180288767
1976 0.6842584733378353 -1.6052108713626376 3.0946927523887426
2013 -0.2799790789515741 0.3827664113853872 1.1583192973780758
2374 -0.5796953415571526 -2.114688352068045 -0.4397117544533755
1980 0.187984340309703 1.6786204292006621 -1.3222957304773488
2017 0.027745143182396504 0.17389201839095966 0.2565648690879997
2378 -0.7325380949522466 0.923716988837682 -0.6021224748644086
2021 0.06778523548189874 1.6503429012758466 1.620577431740546
2382 0.9563660248616958 -0.43003327833045557 -0.4816794853470787
2027 0.20908289295963453 1.1013875724558226 -0.4203689709539175
2386 -0.28311047777975423 -1.5549637371852107 1.180154384321129
2392 -1.8187710660824374 -0.6224822078760371 -0.4953210951041914
1996 1.5282203017681626 -2.0174597329135597 0.07895023851493004
2390 -0.5683322733053805 -1.5016825598943624 0.5323233468381967
2397 -0.4536351457706394 -0.26919751266462016 0.9676581787188703
2394 1.5891838615872849 -1.2130281988134164 -1.3914054069357107
2398 0.839959228580926 -0.8849639651146551 -1.2563338107163786
2003 0.29133551085463444 -0.3803161733034879 1.1662492929662798
2402 -0.039412644520636746 -0.5636918487582199 1.0876382504743962
2004 1.1671302636842538 0.35800816768134336 0.7017042709540969
2007 -1.0057203318102779 0.07029722586661503 0.37092553040403026
2406 1.3333407138285691 0.6666094630548893 -0.7927757511284289
2012 0.24410979109383152 -0.2259960227511245 0.3015111784981488
2410 -0.30699017992471084 1.1582211701923377 -1.100917451796062
2409 -0.8435815046952907 -1.2614600991156493 -0.8797481750989284
2016 -2.2022090778591976 0.2455424974668305 -0.9896862663405745
2414 0.26722375690469036 1.1250709136837131 -0.13410018497472023
2020 0.2432744578447184 -0.451751190049216 -1.576033126885487
2418 -0.33634404568377246 -1.5206359713173199 -0.7617679403685617
2417 -1.4669290018582957 -0.6205707490227405 -0.39184444638869564
2019 0.02060904614769762 -0.14886400362170277 -0.6198488818514505
2024 -0.3032507981497681 2.0958047257077 -2.369970495487348
2422 0.19358754382006 -0.3300288745712138 0.5173665605574138
2028 -0.3748727730380634 1.0529762371102596 1.3291758699032954
2425 -0.29564314876220604 -0.5128702028689631 1.6178026699364676
2032 -2.0730221604013686 -1.3334523783532668 1.354761696805542
2426 0.40642686330271305 -0.18471745998989453 -0.20392299914372855
2036 -0.3865414129304414 -1.6208621368524125 0.16356562700453733
2430 -0.17774770456066136 -0.6292380857155907 0.43356590286992014
2434 0.1645888591415602 0.978045514809115 -1.4267367669706672
2437 1.1384805331583836 -0.2841209057827601 -1.4571669097491111
2035 0.7258985672972733 0.14918271351804513 -0.49606921341369514
2401 -0.21565455938553343 1.209383889729775 -0.4899509299830961
2438 -0.5658269149831591 1.9542226811667935 0.9698156041857451
2043 0.6873860965324234 0.10347504161994006 -1.706906677332684
2442 0.6210361531912046 -0.6861445486664963 -0.5633510948872416
2441 -0.2582230366309819 -1.7354564348638686 0.3218437385752102
2048 -0.916200796133395 0.9086039225316029 1.4576930883433639
2047 0.004749613266243279 -0.3815778100741692 0.7115389266997035
2445 0.2794264398018212 0.19536369458560957 0.7952424850384847
2446 -0.0762550833997489 1.3721003738949644 0.7978797216982971
2051 -0.12823576477758794 -0.2726022768161203 1.7299861013825626
2449 0.6921576721058451 -0.32914795673138686 0.32815318692582196
2450 0.38445482293106753 0.8596855249247676 -0.7988799723656125
2055 0.6792988568935456 0.6348180111060683 -1.3568209955199906
2056 0.1756693033813842 1.1543238198340537 0.9767912689718351
2453 -0.7023586951737125 1.1911230295548951 -0.9015350348571067
2454 -0.1598256450462542 0.6503152776826968 0.9917181203442053
2060 0.1707201923767227 0.1739259878209879 1.049788208316637
2457 0.5659207998490379 0.2440265373032093 -1.0100735603771847
2458 0.3672329855013468 -0.940006104285877 -0.18607679454973822
2059 -0.8509517020694439 0.9308238438398463 -0.7931350461484122
2461 -0.5252575219100686 -1.3710686928232985 -0.29857245699063395
2064 -0.2294521132425818 0.5958786081524913 0.40236887333596333
2462 -0.8303475016203035 0.8074090691168214 1.7882287725075316
2063 0.6496185871470849 -0.7930147438415496 0.32558734700488023
2068 1.1068123620983668 -0.0193757310491894 1.1604628730142845
2465 -0.7870144735422819 0.23325504710646008 -0.03177658150577157
2072 -1.277292332163878 -1.3479444952992445 0.07122630374389113
2067 -2.283985240512745 0.6068970194450598 1.3401691186313867
2469 -1.174872935706002 0.5294637417339199 -0.15336373601778758
2466 0.9294732097153291 -1.374551330950845 -1.009919459574453
2071 1.9712961045159196 0.27800121628448654 -0.3170882440249133
2076 -0.7262546440856174 -1.1313377251301655 0.3661934088855181
2473 0.6275704465604532 0.0668671771612662 -0.4435961275743086
2470 -0.7437356285719501 -0.561031466188635 0.2837060028207472
2075 -0.4742782715271539 -0.8176774800395084 0.8294066602590439
2080 0.5658456865135656 -0.3935692448010471 -0.17413733173438015
2474 0.8169023557363616 0.8174399749830189 -0.6828989984471492
2477 1.2463201422724437 2.555816424181477 -0.6782058025251015
2079 0.6885233958514592 0.7764580147998879 -0.6970863921299671
2478 1.8046751614669219 -1.3791779539771634 1.4350945185225357
2083 0.19406748777697613 0.18438761709869972 0.60346970116706
2482 -0.7499475199231983 0.8357830690708631 0.8084288956258308
2088 -1.1424429166725045 0.0690124053005989 0.7964726579088601
2087 1.4122305886317421 1.743770491026631 1.1218666746965564
2485 -1.2224768522152099 0.055708598086766974 0.4222874744017962
2486 -0.3117762269274727 -0.6903562933700355 1.467812462940385
2092 0.6573573009272283 0.7442513821558958 0.24468488076777528
2490 1.3190029658791869 -1.1626022093133577 -0.8886010208913131
2489 0.19200934275884035 0.07553806947558728 -0.5993349104535246
2096 1.4019967778484537 -0.6689008273013172 0.09988863762562383
2095 -0.03857543065716079 -1.1090838895998882 0.8793889184050894
2493 0.8560407011782646 1.2303330575432812 -1.1793388476586044
2494 0.5650844667569329 0.5941863267233514 0.019565340032564008
2100 -0.7143104110841461 -0.8518081004615522 1.754120440678033
2497 2.8301224934258897 0.2490894493771968 0.003411343523385072
2099 0.9691464758623966 1.0439144166073497 -0.16491797994208052
2498 0.9928162197383353 -1.1117948083190858 0.1470324829419814
2104 -0.0816426068140537 -1.450920679788672 -0.4059439533242506
2501 -0.5636207301922177 0.10253213806764777 -2.648854033744962
2103 -1.579872176793726 0.6900852514178176 -0.13715295363452898
2502 -0.5947724298686978 0.6968369694635073 0.29790036712322077
2505 2.0252157586810293 -0.07773913024210845 0.22519169054815644
2112 0.07408449918201342 -0.5382961027175853 -1.2928513514694446
2107 -0.8695288150289223 0.5713772397845122 0.762440149815945
2509 -0.08663800162754509 1.1866187649418924 0.42577856198600955
2506 0.43705367267505035 -0.6456238170731522 0.6137613484323651
2510 -1.1164804589817041 -1.3664661132207006 -0.18175204903049605
2513 2.5563813053554276 -1.229214093417804 -1.0132495155289487
2115 0.3758648547311152 -0.9469449054861239 2.2147660896908117
2120 0.99420929576504 -0.7105383644548464 -0.7138747448293231
2514 -0.76042678669269 -0.8414550974125141 -1.251273359911564
2517 -0.8714232998135943 0.0988938141957428 1.8464210934238303
2084 0.6528866052779467 -0.7265338039461094 -0.7988828138900259
2481 -0.3360008379594434 -0.23786348318015568 -0.13082214784832
2119 -0.5974098952411505 2.8865991154442106 -0.6086398996736516
2518 1.9849868189960662 -0.6195361660198262 2.2489731809260363
2123 -0.18173489584567182 -2.5090496335549375 -0.6911996305350648
2522 -1.5679954741184514 -0.7774243035882712 -1.0705270758367238
2128 -0.8044103640461481 0.1483982501143051 -0.34043467100058605
2127 -2.6601574725855484 -1.1701077095889 0.1607579359239587
2525 -1.6282698342057362 -0.25847933665472606 -0.008665181560809174
2526 -0.5755727263403242 -1.1167322453141235 -2.0131345344069067
2131 -0.41186942967497475 -1.6064553853011985 -0.3434658521198124
2132 -0.8592670056771945 -0.15516552399350048 0.6750575652387069
2530 0.07945009977077142 1.5505877972142004 0.9490911319952995
2529 0.33182767829283405 -0.7600416187681922 -0.7117660961171592
2135 -0.6888948111000303 1.2042135767354292 -0.5726065058679842
2136 0.6288435139990431 -0.799174424204948 -1.371676601238863
2533 -1.3836795662326458 0.6087655672377398 -0.08259060663789873
2534 0.21932050444665482 0.3176117205279306 0.27472829227762696
2139 -0.13962982726578926 -1.512519377422478 0.07071102328117611
2140 -0.02526018363511603 0.8887123844942161 0.005463256759630903
2537 0.5415195181618595 -0.939943265932609 -0.25511908296331576
2538 0.2924219246182682 -1.8186981213852023 0.07600443038746676
2143 0.15948439388112828 0.004697725799815955 0.08626256050208941
2144 -0.016740509614301857 0.9949299445044752 0.3010102453404116
2541 -0.7582458218722705 -0.25401793289254543 -0.8397674397706878
2542 0.6531768198982725 -0.09044094775872356 0.9582303563006788
2148 1.2014709596160977 0.6721368846545507 0.3577116100275987
2545 -1.6417693551678354 1.41723332015891 -0.4858882850041344
2147 1.0229849906007487 -0.7543778509183718 -0.41228760815566745
2152 0.755496394868827 1.5687940700255505 -0.4060915245305561
2549 -0.29810650640702663 -0.25732099077474774 -0.10458487005980825
2546 0.31899300559293775 1.6395527564255172 0.18666757091462577
2151 -0.8907736352687647 0.6101934372514732 -0.7484348149030277
2550 -1.344251403428706 -0.2687304169057878 1.1192799466182808
2553 -1.070793924666446 -0.6621854879673316 1.0829646438385008
2160 -0.3150433449472448 -0.24743895181405295 -0.9577224783529013
2155 -0.41665562371578446 -0.19425982979071615 0.5662907037460257
2554 1.1218292919937758 0.2711228911305678 -1.332382865445032
2557 -0.4678397077640819 0.2878885407931891 -0.4791451869288272
2521 0.6067629847133985 -0.7481722465464506 -1.875299818306705
2124 -0.14767714877511973 2.252649492831506 1.7735380961221792
2558 -0.030791463558754346 0.2821504990807466 -0.8900719546014859
2163 0.7229655702284786 0.26260201692915974 -0.5873895628578687
2561 0.6374805854139258 -1.9070879252692892 -0.15416997909587205
2167 0.723217606216495 -0.7893034455982118 0.5182462404439573
2565 0.4685209221303602 -0.7602986614738038 0.023472422648214156
2566 0.8440453630731557 1.7839750713697191 -0.050373989157521566
2168 -0.4730399424321647 -0.8143646610247568 0.0075802330708686794
2171 -0.3168884376439536 0.5231815315340688 1.2213930534078594
2569 -1.2804291142478137 0.8921628138070192 0.05181542892278358
2570 -1.1837028478644296 -0.5842154710016071 0.1095061213691638
2175 0.6363961511368447 0.5817627537636316 -0.5647004281885543
2176 0.6713161177385657 -0.8406765679638184 1.7638260942143862
2573 -1.5886719150131168 -0.3656304866766944 0.34235546233609887
2574 0.7148001085042369 1.3717935599247073 0.14353510697311456
2180 1.7651517258300786 0.15597770085893248 -0.9557544349995432
2179 0.7314879657856537 1.6980937525258346 -1.1248330601087198
2577 -1.401454547589483 -1.1283855730785697 1.524255785545917
2578 -0.1137000190136459 -1.5377564991979016 -0.19648706153329307
2184 0.3692635257528552 1.3704693582501306 -0.5993043836395296
2581 -0.4709230929709434 0.7458794119713018 -0.018470960844362637
2183 -0.9644485588294358 -1.3988151125244976 -1.0653599470129005
2585 0.5351398361975419 0.794198484238172 0.7821266065831728
2188 -0.48010803913233835 -0.6818101926525238 1.8186320187139164
2192 -0.3774680997539319 1.0111077485247872 1.1373203460173795
2187 0.3878560416518831 1.4341870170581776 -1.2444972529974279
2589 -0.2822897244670941 0.35025846540920136 0.07825224545015985
2191 1.877450539411911 -1.5298038152462272 0.42972556062537376
2593 -0.44029598404803927 -1.595325685379794 -1.0085081125666984
2590 0.8234730465429815 -1.6847769288502452 -0.42029276208720007
2196 0.18669131190993316 -1.4503354743804788 1.8471723675171539
2200 -0.1952985557374525 -0.8017131729783633 -0.6909593229981246
2195 -0.7126312068682684 -1.340460133109383 0.8999735081254943
2597 -0.29599031014659855 -0.877673180298152 -1.4046251000085672
2199 -0.3838178147192062 0.2819859424814504 0.22461896481000115
2598 0.22499216705922565 -0.8260503013111441 0.8875869877911152
2164 -0.008239487720260133 -1.7940452251742804 1.6819861435062853
2562 -0.09374933474409365 0.5570622897904779 -0.653257576098174
2203 -0.10232022955278863 0.6981118407839143 -0.3761989465329824
2207 -0.5378196366544497 -1.308470414984402 -0.26386479002163316
2605 0.4617227685252315 0.16722745430089037 0.0687469892730309
2172 2.081737665338069 0.819885222577238 -0.8046878385490615
2211 -1.6029567619747918 -0.8754768847254637 -1.1836893574006369
2609 0.021944748986075683 -0.03816785072681208 -1.540663714329875
2215 0.693851727483423 -0.23572480452004882 -0.06578365379112813
2613 2.3994888299394592 0.4943634484235915 -0.011354593906831143
2220 -0.6544663330768045 -1.3680166678296912 -1.8682702491355156
2617 0.8013254155351118 2.7792902916113755 0.32221754570971817
2618 0.5068599274926114 0.2944962758351178 -0.9822912169281027
2219 0.7813259754291334 0.6648758703447604 -0.7846878557575233
2621 0.9990991230979148 0.2610211534899248 1.414504407321527
2223 -2.174449684909294 -0.2613290369003737 0.2983550817866884
2582 -1.8231176905214423 -0.0033195471021597507 0.04494608783319382
2625 0.4263408550473224 -0.37030042680215214 -1.4817206430577097
2586 -0.4497205496982947 -0.6342270204246722 0.6009864913279891
2629 1.998994788664661 -0.12266924320643949 -0.2758835802256635
2231 -0.49016806480428926 -1.2125408493208387 -0.16147368321074884
2633 0.3040424545620397 -0.7245775417664044 -1.6687943154143379
2594 -1.003268582213642 -1.7444166797031981 -0.16068993978416904
2235 -0.24679753224165704 1.4471911266342754 -1.4386281518925623
2637 -0.21213724507684611 0.7229715426830314 -1.1324574528414932
2634 0.8055799048474561 -1.347775034427061 -0.12413019401652123
2601 -0.1622595005483968 -0.31312632089779174 0.19899985554428973
2239 0.15317918519690318 0.5186065225545963 1.17866272947439
2243 1.5574783676804393 -0.7505001864535429 -2.42432411102136
2602 -0.13958573181764583 0.05784524337370675 -1.414348550787034
2204 1.1762153932411912 -1.5433737429761918 -0.3037563774471841
2208 0.07138741220039693 -0.12174622090125985 0.5229127525566096
2247 0.2409267867859685 0.17817888622497288 0.3793280918243119
2606 -0.13204524872316273 -0.16327925090604084 0.4685304264668776
2645 -0.6540822160072225 0.4455370457373296 -0.5700134587956961
2610 -1.1105158624139237 0.6297023163729398 -0.056489693220429335
2212 0.2020221311942586 -0.7629938646558627 -1.1372885841378564
2251 -0.7061481448779755 1.9085525086912287 0.31750990370698107
2649 -0.6212272337303844 1.0382845312765407 0.29628753171321953
2614 -0.29941063505185006 0.7706417937088191 0.7414862892023502
2255 0.2682864544369967 1.5640051630524876 0.12434236894077022
2216 -0.2153658561492013 0.9111587508747149 -1.78786224962775
2653 -1.3925973109967138 0.04352141062185138 -0.6269279165208502
2259 -1.3195875898913727 0.06931721420046497 -2.1934574372242523
2657 0.04874024343073567 -1.6378219662674551 -0.26208572455625045
2661 1.139692115833001 -0.9449125952000955 -0.04174353351054792
2622 -0.06138142692252276 0.7387080282537973 0.023688979724192653
2665 0.5502622134167002 1.75249199020301 0.5319060847913464
2232 -0.8106282714495704 -0.6747251973360114 -0.5553549156207707
2626 -0.6622852960940464 -0.015988987969638737 -0.16079612421023254
2669 -1.2320590840437453 1.475941900010409 0.6874115794061492
2236 -0.23377435964229565 -0.7484031824568205 0.49644858756551663
2271 1.2582663344087048 1.2076357647672922 -1.5018334426299322
2630 -0.3209266616955269 0.25426127718711855 -1.165131472574574
2673 2.0388757939399644 -1.0274164943340405 -0.6151074296385136
2240 -0.07099400576933543 -0.6271496574253832 0.27383452774950817
2275 -0.6197507204428668 0.880376283770284 -2.989280392580361
2677 1.1025986657158995 -0.011458519322247611 -1.4963636121825057
2638 0.9527565997611983 -0.6262940987498612 -0.22694501154464214
2641 1.3335821323921282 0.29939055793511926 0.7268990139471923
2279 -0.2913749286914465 0.8265316266855213 -0.8047792598015948
2283 1.7143976960454734 -0.1133152667931878 -0.2054725994743375
2642 0.48972818928121614 0.5387478509482405 -0.6405075294730812
2287 0.855240662214781 -0.3988602514474912 1.050053216508964
2248 -0.3535998554880514 -0.6074747465633262 0.7936286196363339
2685 0.5206396212603563 -0.3393141985505803 -1.4699209645336206
2646 -0.9379632183476961 1.21865124703083 0.31416814629895545
2252 0.3688528565338968 -0.24947597970994134 -0.42724179824456665
2650 -0.6933047177631676 0.373997643761193 -0.47107172933181435
2689 1.2833644304783718 -0.7863504567140963 -0.5814028750905592
2256 -1.0468823306472526 0.5961723170291906 0.03970838379426421
2295 -2.074816890652226 -1.203333361557794 -1.2600845347001133
2693 0.24515578108383693 1.0502254428630537 0.2900933497988803
2654 1.2769316684893368 -1.1262576878621764 -0.8502588386216238
2260 -2.283207709055998 2.340310597122447 0.25998526753016926
2299 -0.587480838246603 -1.3425314711133767 -0.3579450697400633
2697 1.8360236569115649 0.828588956038923 -0.2724018983842419
2658 -0.4614123343197816 0.0318764112140205 0.30803322096380154
2264 1.2752382028596978 -0.693817660205431 0.7674025072729669
2701 -1.074732439819443 -2.4142087428601706 1.7836581388065473
2662 -1.1147398638868988 -1.0193680771552054 0.6059388013372965
2303 -0.11705603228530857 0.20874053393293385 -1.2997654583654854
2268 0.05602982912335123 -0.27783021609419833 -0.8493528159168607
2705 0.6393015701391149 0.5266281217782562 0.3143412134754758
2307 0.7284790550508141 -0.4964726014918606 -0.06970845422942132
2272 0.9168100953264188 -0.9793768101970154 -1.1220311604636835
2666 -1.2331743887232565 -0.5217254341082197 -1.081098782148406
2709 0.9829212041134632 -0.5918080497638399 -0.0689412325852068
2276 1.447422358870657 -0.5379451739430459 -0.5643107720533235
2670 0.7217293028056286 1.422448881020131 0.15524888454920682
2713 -1.2667788727535685 -0.5626661282639769 -1.179689320606957
2315 0.5231888727670677 -0.8805816984603573 -0.3714998048568335
2280 -0.5167366793006533 0.703733924827154 -0.2334314485074373
2674 -1.117030553544519 0.9696286426668929 -0.1909576034792281
2717 0.23047516191546044 0.07662384191310771 0.08067135777982853
2244 -0.44107149812941154 0.4514912535107687 0.1338720433177336
2681 0.25053882415960266 1.9543597994575685 0.2681179943143182
2678 0.3606234562043933 0.03739542671171336 1.497247195083735
2682 -0.4674113995500549 -0.6922767004894352 0.09674768766723016
2288 1.162921637680319 -0.973332410513859 0.42888037404243373
2327 1.272106387873236 2.7921366347539003 -1.3140199965740476
2725 0.7970177077633304 -0.01757977817167079 -0.5686638280740205
2686 0.1580963891798509 -1.306146592769992 -0.90158803250372
2292 0.3938022513468019 0.5023879166650159 -0.659970134068463
2331 -0.9304614002268454 -0.38493898598901455 -1.4022172563786843
2690 0.9069746403735942 -1.379726180895967 0.7715441787470054
2729 -0.6807166332183354 -0.7064179927655655 -1.1487298966048562
2296 1.9706467955880294 0.19595973694119687 1.090065313911579
2335 0.8367746792522825 -0.3633868592115774 -1.5617919135994527
2694 0.51991583955937 2.0553173375739324 0.478577828670707
2733 -1.3914737460504039 0.038586778178252054 -0.5008715269167066
2300 0.26495475370481136 -0.4143731699820246 -0.5902775127899348
2737 0.797451253568598 -0.21027523501255144 -0.717601521922334
2698 0.9847075211057146 1.0314486764087019 0.352646334132457
2339 0.22919088349992528 -1.0884081834970876 -1.0056132643728193
2304 1.1786016084529418 -0.3014166426793939 0.4471011756002305
2741 -1.4016092143522008 1.9498748677737654 -0.17204684671272732
2308 -0.7189054659280214 -0.2923456006772189 0.49158041663486596
2702 0.6659653968674935 0.9337225285408464 1.5748312341626716
2343 -0.4530075641000429 0.27276453036999526 0.8181228114095289
2745 -1.355046832819686 0.02884122348511579 1.0322747296253312
2347 -1.0653544091399785 0.8677819312216101 -1.0390326238037064
2706 -0.777054589145939 0.6952247239110906 -0.13658835359516835
2749 -0.9587004042654415 0.48056897930914383 -0.9719077372380446
2351 -1.0918727738394225 0.9987636250350661 -0.06801364786551882
2316 0.16136205628592024 1.520332166995711 0.9093388846391063
2753 -0.10101384259840553 0.3619138469599512 2.2989205233496426
2710 0.653545480980093 -1.162268192448571 -1.140145900354772
2355 0.7678648414677112 1.312910330511284 -0.085921495441069
2714 0.1241298801066718 1.4665426807908024 -1.2962380238365907
2757 0.30104840087302936 1.316987171385703 -1.11129528430863
2721 -0.844327086170285 -0.053172697162975326 1.3753687728647865
2284 -1.4221704601237983 -0.6156591761758617 -1.2174565099192032
2718 2.1413648387198334 0.47128062541995097 -0.8163895169808442
2324 0.4104965335925165 -0.07227858353167031 -0.5790946912893502
2363 0.4523884037783458 -0.9350277660130089 1.100576612682169
2722 0.01874774776087831 0.272100993247869 0.4340366838182253
2328 -0.7504702980454367 1.6187720475925313 -1.0547390319772272
2367 1.9486913565532256 -0.34091040474264395 1.5368886702319047
2765 1.6203240481528853 -0.15167806551472357 0.9507923777016829
2726 0.47794861207755585 -1.2051315007202668 -1.5494984038578716
2371 0.09434604639969058 -0.3003857275434797 -0.4252698256015272
2332 1.1118036458493836 -1.3386537932695204 1.296104476811258
2730 0.17255253918238503 1.3290115827215034 -0.5731677241937843
2769 0.29982609871034893 -0.03898525147152145 -0.4235028433157483
2336 0.9872290452095283 -0.6543667762232396 0.4826474913968933
2375 0.056150689825726435 0.7417706704905294 -0.3815628720132125
2734 -1.0119906307430457 -0.5289776340859444 0.962820450449297
2773 1.0291665599631334 -0.9123704803608605 0.013434453736758764
2340 1.2675437359447261 -0.9081793152484208 0.9297267389010029
2777 -2.1351762314128164 0.6451356844514032 0.6748318987281064
2379 -2.3625435269713155 0.9367501607397516 -0.2610934196332415
2738 2.4019899841645187 -1.2999038914962913 1.2677853290702694
2344 0.5636794758056657 0.032128899274015466 -0.7072131319885175
2781 0.1944535722778275 1.1497341581250926 0.1592898166194344
2348 -0.5330944942079175 -0.16442340539612876 -0.7967776038433902
2742 0.1810956376724111 0.3384049378905923 0.6451344920081091
2785 0.40508673055957883 0.6490126894971339 -0.004962766390575334
2352 1.0007174324748278 0.5220320521965818 -1.1201084472254805
2746 -0.4612832514478626 0.24680254090637435 0.5551485798920505
2789 -1.0368428271734225 -2.1888598226649667 -0.06014726242159047
2387 -0.8882843576057057 0.07081370675860661 -0.1882322594825958
2391 -0.25221909118603236 0.24939317248298323 0.32615381143941824
2356 -0.26325207358416575 1.3010364737192543 -1.8227717662297482
2750 -0.09366562346878085 -0.34428787373662084 -2.033663911874618
2793 0.7940180175154954 0.7830324866319398 -1.8039842641406298
2754 1.1761477265263471 -1.5977025739190074 -0.4640915407223628
2797 -0.4266109102943097 0.06081502502627128 1.4182228170925972
2399 -0.989339900526736 -1.9083802917298762 1.5841820948363388
2761 0.04106795436163837 0.5082204019633668 1.7824369428618962
2758 1.6608887714805136 0.8411337020064801 -2.3810820488231257
2762 -0.11364475306824232 0.28354780682101977 -0.007003774917840231
2405 -0.07922235206244288 0.5805345853367951 0.6892848793467345
2766 1.8680408774246653 -1.21228689789328 2.100268075517699
2011 0.6717829697078608 0.660203560626972 0.408292020937213
2372 -1.4203853020898443 1.9800469186981198 0.9069347634073137
2770 0.4800736474367001 1.7482434565313358 1.2510968607449355
2015 2.5069110454467096 -0.16672660079977736 -0.3075151085036517
2413 -0.8520753948869816 -1.2009605762619238 -0.4707896281446245
2376 0.12475632398703444 0.03939595926304291 -0.6076870400220347
2774 -0.8444686348644661 2.4417096958123294 0.9722457117893286
2380 -1.0605258664153432 0.6788364515144305 -1.1516138686392918
2778 0.9972558394357803 1.4600727250750847 -0.9368964551362299
2421 -0.9915667333414452 -0.4284180552890279 -0.8916572031115203
2384 0.7137846007611052 0.8744175998624582 -0.7323557919257919
2023 0.11845524196334503 2.1871473372101637 -1.3829691681486536
2388 -0.4283879958656343 -0.5678803618172179 2.212639443509523
2782 0.43811876146769796 -0.4827457246745017 0.5109396762384368
2429 1.7548842435224463 -0.014311130668182234 -0.716001262457007
2786 0.08130872224267939 0.6108840250988625 1.343001561137753
2396 -0.8193961689400567 -1.2745977897508955 0.26916641700653754
2031 0.8762977933661165 0.38080344689077966 0.8744372143755588
2433 0.3506450324907279 1.9386969303961161 0.17564290366380164
2790 0.3729932325329181 -1.495239121504626 1.2138006893366533
2400 0.28359268122143233 -0.21108967688929353 0.5807985745577952
2794 -1.2783308370685953 -1.2015046901740065 -1.232579796860138
2798 -0.02782982525988903 1.8653855977197347 1.1129863104088502
2802 1.0234091247495287 0.9449613387390473 1.1504600416244413
2403 1.0059505631654635 0.4806322076729715 1.5937542376988607
2404 -0.3364679663466041 -1.4222498484661048 -1.0588987034810295
2801 -1.480330509727655 0.7784283276084355 -0.02511571642990766
2408 -0.5657531235921416 -1.3618694661118844 -0.4133313742140445
2806 -0.8010652476266095 0.8747767146989425 -1.324643339645378
2412 0.8830164231253745 0.9567130312056398 -0.9837189181729029
2810 -0.8123847085997602 0.9698322472572551 -1.21478512429869
2809 -1.676403211114459 0.4626606021758405 0.5281838972602595
2416 -0.7029947617166699 1.2915937311700454 1.6014378827887774
2814 0.8280906875158776 1.2629008557334118 -0.5566687724000708
2415 1.2002828365717757 -1.5805312949798493 0.6741169096291881
2813 0.7044752552026603 -0.7462791096610322 -0.6232445921416799
2420 0.7936137655129542 -0.3736074051374512 -0.013303688056265096
2818 0.3230829346674842 -0.9190588647849433 -0.10438220682793589
2817 0.41234097689731186 0.7335034186276925 0.3487846961904689
2419 -1.5046099417238825 0.483338881340262 0.32664196898570136
2424 0.6777113345927847 0.7074182142395883 -0.4803789584780691
2821 0.6480136766141574 0.2518043508446256 -1.450118581088902
2822 -1.5219792534765177 -0.1621864996501592 1.047971328539928
2428 0.8010347134340965 -1.217998467437179 0.6974119320013149
2825 0.026876947293306377 -0.5945067681288597 1.6150023208110922
2432 0.4677469956787652 -1.270265474799168 0.8990533659716968
2826 0.2991663727434342 0.060792549597232355 -0.16140728899949808
2427 0.8633431415367413 -1.5132113678957602 1.1277175027289832
2829 -0.5001692014328881 -0.32777288960138384 -0.9948078042445069
2830 1.0754282170925693 -1.2937193214937148 0.9925986029529023
2436 1.853347988596238 1.102820700530261 1.346752096104007
2834 -1.0312352931169952 1.6766301370609167 -0.6209031805589474
2440 -0.6899567112872167 0.4094646390616029 0.6693863488205709
2837 -0.3624762957798941 0.01976679743179685 0.6502273714175002
2838 -0.6839282883846618 1.2034882037913275 -1.6231388515386185
2439 -0.1860491482898729 -0.9954015874673322 0.3307649341450813
2443 -1.491328258556261 1.623862638361908 -0.08999419544665178
2842 -1.298642896615235 -0.666994518766607 0.7062884420502819
2845 -1.4777508964636454 -0.7282569087812787 -0.23673186249447672
2447 0.9195182416392627 0.8791722536801603 -0.941974977285357
2448 0.4514443245163908 1.3384867766548263 -1.3922867278553737
2846 -0.526916085580885 -0.2962811492523508 0.2855466518197574
2451 0.8553993196899978 -0.8948962012067941 -0.8119734179873905
2849 -0.42672095405137955 1.5159892518253835 -0.4092073345514573
2452 -0.4536005137281217 -0.7058249888524016 0.6055002688945295
2850 -1.590276345811733 -0.28128472824710743 0.2829011502840493
2455 0.10173835937427453 -0.9921511520385031 0.13493921611762938
2853 2.1085573339945385 1.7114938925130503 0.020302023704297827
2456 -1.8848398749884838 0.23109884502245362 -0.7398724797140237
2854 -0.6713778880394369 -0.5642196460417486 -0.3303282351859775
2857 0.19285603224487224 -0.5627506891986689 -1.7676467457553895
2460 0.5359573408586626 -0.14745899701360002 0.002264054166029652
2459 -0.6639345719633962 -1.3618917649765176 -0.8358517194843925
2858 1.5577236575706386 -1.1372251248134277 -0.5338675983582852
2861 -0.7612933847760686 0.8393856513583768 -1.585668032296814
2464 1.0936246193799426 0.4702644666614781 -0.9256140519484766
2463 -0.9127847491565921 -0.0769844397258914 -0.022570471006635274
2862 0.9605188266373131 -0.9965226085381379 -0.5892127625852593
2865 0.15310302173862336 0.7470600281900233 -0.6039680253718909
2468 0.2776113371471191 -1.2739198740065192 -1.3519153141844031
2467 -0.0547565298025877 -0.7234423898635525 -0.6484476817376821
2869 0.2460646466349084 0.1479010890454869 1.025670323686096
2866 -1.1059535484631569 -0.3334560786799015 0.9825972313013456
2472 -1.318160364016709 -1.5923391893034549 0.9890763850302611
2471 1.3538225511099533 0.5483537255744986 1.025673126669213
2873 1.1443402718849616 -0.31638371496606593 0.7460040410201909
2870 -1.501354413191467 -0.4071785425330568 -0.7462672541423925
2476 -0.7498062151536431 -0.4241599772645243 -1.5393956190791391
2475 0.006018965563224827 0.7625408145541196 -0.7482790351685047
2877 0.9191987437877392 -1.0393277914187944 -1.0633038376724464
2874 0.29105180933985375 0.701820404641421 1.200774333352254
2480 1.221922355724527 1.692756022252009 -0.6105073694132691
2841 -1.380867351409445 -0.8644892191479535 0.0703074964889075
2444 -0.6574553983336433 -1.6993657415595955 3.012772982851754
2479 -0.15886056740659754 0.2659600377279065 -0.06857074567889428
2878 0.35075631927035006 0.750906136598254 3.1170242107983257
2483 0.39064462327819144 -1.0930644490792036 -1.05456059233603
2882 -0.35837854952150705 -1.1068347051051617 0.14071732181042762
2484 -1.1960656570063055 0.5209386975428764 -0.2779293946910292
2881 -2.5746186787788687 1.013962677368099 0.1792165001612861
2885 -0.6183004079174047 -0.8277847054857979 0.7871601440261224
2488 1.1866670544137754 -0.8539823690582261 -0.0754001457445153
2487 1.850228567124495 0.7012033473255711 0.38741694933958887
2886 -0.7600059852228698 0.3377103520321786 -1.1211882888290643
2889 0.7275979586468001 -0.4599066952557586 -1.6063618868796536
2491 -0.34995049608273343 0.3155538662207971 -1.0898024878748493
2492 1.191167251492404 0.6120153008610209 0.4418720171383476
2890 -0.08482351901705416 1.7174390218040145 0.4530617226303549
2495 -0.6541318546941742 -0.6017857583608256 0.6957477167098989
2496 1.6775714466514013 -0.21695045964356366 0.65202251487821
2893 0.16005562165455844 0.7250591143971261 -0.8374163401625158
2894 0.5147547013026267 -0.008916677743166573 0.8868531732973495
2500 -0.24270760303058708 0.24192902529583665 -0.5053672490356986
2897 0.5982431250968222 -0.3398836392560839 -0.7048840685995575
2898 -0.09266055025199522 -1.12902226674145 -0.2100698424912395
2499 -0.320942698921766 -0.49419408261278247 -0.6069843445898195
2504 -0.8734527520856183 0.2757041832510771 -0.7429394277038351
2901 -0.5084621693492556 -0.3893582471555679 0.020672200328635006
2503 -1.801799593595065 0.9260577041530913 0.8489752588508799
2902 0.2680691740539549 -0.6245172198148544 0.8665004721142902
2508 1.3783012039078366 -0.2795216475512823 0.4646614129181398
2905 -0.9593989408642535 -0.28000199566964334 -0.12771795243098297
2906 0.03364984959515673 1.068890008864785 0.6877767394810229
2507 1.0082035541922203 0.9697366814684178 1.1770848445168143
2512 1.5784842019373713 -0.8149034323457571 0.2470400344507654
2909 0.0010690850614716804 -0.6570703283971261 -0.20150450499069059
2511 0.5125503123836385 0.8590510399690008 -1.5064683873077362
2910 1.378619175418014 -1.2165377692301078 1.7142516874775968
2516 1.2806103415334127 1.8330557306691755 -1.3717418307675717
2913 -1.4537203666765388 0.12760064851571562 0.71624243520667
2515 0.11373488059959312 0.7803572238097499 1.4017500789301622
2914 0.030460765794907644 -1.252246560279519 -1.1315197405693158
2917 -0.8212613273150329 0.5075585668061088 0.02459817734973056
2520 -1.6641351513060723 -1.0790912879715258 -1.751124810596158
2519 -0.47585996286866905 -1.0181113876764747 0.6809627415660446
2918 0.6273143852728166 -0.5783478910953971 0.6456390952987665
2523 1.0479524894979872 -1.1843741244989339 -0.16297129720185138
2922 0.503770599552576 -0.9906422813976761 0.01015547215021094
2524 0.7671900054152953 -1.5987029742966428 -1.252547620527853
2925 -0.16563797519829496 -1.1636049774855113 1.1343386947626752
2527 0.9314402427226912 0.795761224540943 -1.0764283442333344
2528 -0.4505429428134323 -1.6863070938895919 -0.21278745654925738
2926 -0.32378365494453926 -0.17229049561779067 -0.1412382044892606
2929 -0.2906054386739047 0.26784519731194734 -2.5496253447938804
2531 1.4447029336931083 -0.614541144120623 -0.2025005395399081
2532 -0.07136281301624331 -1.5870350158276374 -1.9296799330428207
2930 0.7514240800895772 0.3140932097830611 -0.24866255860908754
2535 1.0862132000940206 -0.38506756811915854 -1.1002853385617706
2536 1.3318481428938362 -0.46503534260485924 -0.646421404936544
2934 -0.895787594625393 -0.7698872781597036 1.2088722587932483
2933 0.9184782269986185 1.714137738309237 -0.7538818085619607
2937 0.6893160852937728 -0.5122549811175716 -1.4357917274637961
2540 -0.7650531533411113 -0.48475520417930196 1.558046259645972
2938 0.1871217336280594 1.7296355376031622 0.7934151945085778
2539 0.2899243328645169 0.534657448020865 -0.6110508328941651
2544 -1.0402080385114576 -0.7052895340036438 -0.21881303111944259
2941 1.0537992097065234 -0.3773176304045911 0.5063638389260482
2543 -0.30008485375408417 0.36201201055959015 -1.1635941623732613
2548 0.7495223693253235 1.2686580090802357 -1.48410029039354
2942 -0.11362838634401543 -0.599901392888642 -0.9110730310212227
2945 -0.05000708672521398 0.5839101848033126 -2.876852777983984
2547 0.4861888017641423 -0.8017872283033264 -1.2375376183846234
2949 0.6770825419058629 -0.5265255854405362 -0.6701660454982318
2552 -0.3699030086976688 1.3803820911315974 -0.47402306687329826
2946 0.5671751823659733 -0.9098501386333245 -0.994604967179683
2551 0.6985182545725217 0.6385564028298352 -0.8238269198323441
2556 -0.39190335290924616 0.7215617415466405 -0.05473314689585058
2953 -0.19965548734453956 1.6666687067380241 -0.21819526794671135
2950 1.5222442487961374 -0.22989654941404195 1.2171038874600635
2555 1.8071909303492135 0.7280238052142062 0.48831463265925334
2954 -0.6869057454801089 -2.7235583415844364 -1.7428178763744757
2957 -0.9221419078950773 -0.6670982682615334 0.8534277666272134
2560 -0.3127160081913235 -0.6289041448272102 -0.8334301685849317
2921 1.5448132814000028 0.05299897953894278 1.3780594136326578
2559 1.3385447635308967 -0.276094491551503 1.2830845307059329
2958 -1.2699546991984911 -0.7340574793378537 0.1842063697203271
2563 0.8126754202361668 0.8070417914845931 0.4163878121373884
2961 1.067191252727075 0.5473890565078602 0.7354072245903711
2962 -1.1628920594759424 -1.1900619180869967 0.5438981053072844
2965 1.2310230576750867 -0.9246416188854725 -0.6943321629296813
2567 0.02835148588181807 -1.09642299515911 0.7007246643727273
2966 -0.36022999334297356 1.5421346939843505 1.1196868078122328
2969 0.5417715290426043 0.21070126574544026 -0.3831362285495356
2571 -1.3754069620365488 -1.6182176666336183 0.34908717828332264
2970 0.0005314567725010486 1.5718348925089658 -0.7061904758585806
2572 1.646885585043215 -0.22347968176953295 -0.062280277161213586
2973 1.4156961708084734 -0.10063240446533572 1.3398608343391512
2575 -0.5477308261118395 -0.6671640306354288 -0.026508204676709075
2576 0.17202776507672193 0.02548588344606456 -0.9750005379762342
2974 1.0973662578440908 -0.1642251969681275 0.704755803652692
2977 -1.920435912540308 1.0848948221502053 1.1299627286163432
2579 0.08989281288394033 -0.2976076834309792 -0.12212494924026385
2978 0.14044340166640573 0.012422991027230967 0.9482027947512214
2580 0.7709169672444793 0.40547467171895524 0.21990482822701551
2584 -2.1498789356610564 0.1684017026326722 0.08199012204853902
2981 1.6210003568713303 0.2647293457474536 0.9689143563200171
2583 -0.11317577288784977 1.7481933539011165 0.7181616645361739
2982 -1.6233213757009328 -0.9410004229044016 2.4449487825293237
2985 0.4737185304164686 -0.46116239490069055 -1.0495046811232813
2588 -0.07254900178443477 0.4654746159515034 0.2260919597967628
2587 0.3797668765119664 0.11833389004511184 0.12198868922635997
2989 -0.8092256602765822 -0.8168468468324587 1.1107681055950345
2591 0.4424358998484131 0.07844523237751302 -0.010438270297054271
2993 -0.09418492633293245 -2.1893037544521796 -0.00033693978323606435
2596 -0.4414157988830348 -0.6612201041240605 1.1539990267082065
2595 0.2920345969502317 -1.7254514457456631 -0.3356715214426164
2997 -0.9957810991436467 0.8739406184047394 -1.1940495985502169
2994 0.4351017778884539 0.04179698751509097 1.6814970712533683
2599 -0.20606286500814747 -0.43210467185361906 -0.3496585799088842
2998 0.6163567472974084 -0.9232978240094699 0.8156539937669031
2564 2.101633545727362 -0.2634750058686167 -1.939660204648901
2603 -1.5235219296900169 0.5858824933743191 0.35032100150357215
3001 -1.0407478189139336 -1.2617641856641668 1.0424541729122723
2568 0.008951574404954714 -0.2434032793245946 -0.6335392965381069
3005 1.5028744564114167 -0.35158485717558824 1.6978225398484974
2607 -1.3062827791589304 -0.8316487832087617 -1.188669483428481
3006 0.5283388835679639 -0.3293798091046485 1.3207093297564705
3009 -0.30439214313460045 -0.45017705974690275 -0.021563161161043422
2611 0.9889333804801876 -0.5699772429430026 -1.4062676810416168
2612 0.118464512598016 0.8825405861656603 -0.320257452479012
3013 -1.057660933911414 -1.2320528143822023 0.48112147279902456
2615 -0.22296522528713342 -1.0258301602214916 -0.05401222679230031
2616 -0.5631709658877888 1.3578248113496443 1.056077727702764
3014 -0.5917276632775992 -0.4693209896378144 0.6587859126548807
3017 -0.048355501699534904 -0.06101728666280616 0.08833414235194356
2619 -0.4954803723721181 -0.4976711396499837 0.11199758235645572
3021 -1.1786043675005549 -2.0712051267849625 -0.4710393047984462
2623 1.0154967377372257 0.6596949163187192 0.029886988575845302
3025 -0.6063496564172639 0.03383526801321149 -1.1332795774132511
2986 0.3409432230193214 -0.7288747970323417 -0.8334878818374765
2592 -1.3312160151548345 -0.38830686265438963 -0.408407029760235
2627 -0.002920565240483996 1.3441877687430117 0.41736750030196357
3029 1.0422816406156004 0.6373347366542407 0.04542984289898272
2990 -1.381426826594316 0.00916680337454989 -0.5524685741954796
2631 0.3018288448012796 0.6918226862727764 -0.20892134117114042
3033 -0.5051584671100454 0.9826240266659034 -0.0630798034992764
2600 1.8757551052551664 -0.6989352654799588 -0.07135354596835004
2635 -2.0514214953846373 0.5819501135874204 -0.08870900545430498
3037 -0.1987394291638262 0.6548340587586606 -0.10023410295412678
2639 -0.630254980998423 0.18918444983309368 0.08779633333091917
3002 0.2675891784072891 -0.3657935553025699 -0.41011723450098464
2643 -1.4075436530040915 1.644753343022328 -0.41580419359340554
3041 -0.29561368433593127 -0.15057659547987795 0.3417890939079266
2604 2.2855051845777115 -0.1667621417262825 -0.07200491145238563
2608 -0.7845341042201438 1.071320607928125 -0.08111157700761158
3045 0.3855664957392946 0.10014092426012623 -0.33952044627116396
2647 0.14333418062386316 0.361489565775502 0.8734199824967857
3010 -0.6446981765768939 -0.49883313096713827 -2.3196922473035935
2651 -1.6114649076588898 -1.5940233687621403 -0.2901146885150138
3049 0.7345677192177973 -0.024739668951180373 -0.6808296794243432
2655 -0.47404305165453164 0.4565545869050254 1.9263918228851633
3053 -1.658448518433949 1.242315616746498 0.4365065350757857
2620 0.44797461977197023 0.6116417486240133 -0.5652171677973611
3018 1.6152446780840017 -0.8768141629625952 1.6725281861726933
3057 -1.3609593570217398 0.07446179154522849 -0.14999531804182575
2659 0.3351684495919493 -1.2638255387020165 -0.27202131027890575
2624 0.04507643139532641 0.36043776942837474 2.044673470074923
3061 -0.7355843056516834 0.47913443479958506 0.9554423447552517
2663 -0.002371483498450028 0.8710676444453026 -0.04044895145114306
3022 -1.363675077010499 1.0325588955506764 0.9796216963807136
2628 -0.9693347153568088 -0.19025080848361337 1.4402865570086738
3065 -1.0318203513426356 0.7459847720376426 0.1523901406324133
3026 0.04983283540916153 1.1679648226046193 0.8489741321355825
2632 0.7193749326804111 1.3661342043762374 1.3925032117104088
3069 -0.79743528140751 1.3614647461438925 -0.4477146016109078
2667 -2.065546037396729 -0.6615532663880433 -2.1984988730649095
3030 -0.854296976841174 -1.03822008165367 0.018847879810167775
2636 1.611811186026514 -1.6856845504101363 0.6956409338696112
2671 0.17385417475191128 -0.004335938894861595 0.9529952460558447
3073 -0.6216870132008521 1.367366904699887 -2.0030920877117606
3034 -1.1544234681185732 0.2961046124993898 0.8120473474090799
2675 0.09866021766071577 0.4507248130076296 0.24113191771854522
3077 0.3023509538325184 -0.9258943622807696 -0.9559070717225641
2640 0.08460373869365703 0.3142995665404124 0.5428338013917823
3038 -0.03472344263268939 -0.4694390623550298 -0.6100695107689734
2679 0.8456975885196142 0.7338341553804113 0.2800830826643322
2683 -0.21221431726140486 -0.5844937808214355 -1.067780132840973
3042 0.14520307317872497 -0.8253829783624044 -0.5048954534963995
2644 -0.25353187348261597 -0.027397587311145506 -0.06971040266471258
2648 -0.536715654241174 -0.7279927858693626 2.1059509882063723
3085 -0.6718536318140549 0.5914011301215366 0.25351372425485835
3081 -0.5572069050924913 -0.7826623452178886 -0.5997198132086764
3046 -0.13529311284271456 0.46208757007207785 0.5339609284003528
2687 -0.1056834697172351 0.2965985365763121 0.20057997695580992
2652 0.19226273845205877 1.8975114968175586 0.06078397099368684
3089 0.0906455674473509 1.962836103667966 0.7754754350736136
2691 -0.10931072689312274 -0.3322336881651861 -0.33206258338827094
3050 1.616897984599565 2.0076001991623027 0.13511795487694378
2695 1.416699132274251 2.1680066168918497 -0.4296360112419216
2656 -0.5391495334270616 -0.8856880644053423 -0.19881185231565865
3093 -0.27346371870606884 0.39558597290118314 0.2714530844756842
3054 0.7401591867817999 -2.008388566058615 0.6918208281228311
2660 -2.198852527606672 1.39724992845067 0.14636142696541654
3097 0.06258933326839677 0.5660558842695982 1.435217932254192
3058 -2.3986012875816125 1.2971129301074402 1.2201799955952402
2699 -0.19797182268367175 -2.21161201799532 0.7830000623515367
2664 -1.9571835866797642 0.2857538136051103 -0.0029249901424462216
3101 0.5274760346961296 1.8717334083352841 -0.42757946489895443
3062 -0.5089161000311688 -1.1659883901277197 2.770803625877543
2703 -0.5705532964289795 0.057506289087319896 0.7061456683536435
2668 -1.4583325408710015 -0.4940080517224686 -1.6073807851542439
3105 0.23839852567372127 0.37220248746066953 1.2983197179617176
2672 0.7227737798476711 -0.6124423243751007 1.0454468276031788
2707 -0.315313094719586 0.5530355054068906 -0.3809055997167562
3066 1.064509823014887 1.886552639783822 -0.3742047445797307
3109 -1.4429943891316557 0.43601465622670366 0.10464056651026567
2711 -2.2793066910283803 -0.6492593050450596 -0.5817245385514525
2676 0.9640883770230704 -0.5484785584479731 -0.32929516331732794
3070 -1.8783249805390234 -0.6235454829133729 -0.9382443689814192
3113 -1.3346082997119995 0.35160042508867395 -1.1982938796354399
2680 0.3329951277453548 -0.3922479197648355 0.4146615375089314
2715 0.4239087067925898 -1.2450935909049539 0.6030888978202376
3074 2.0532958371339274 0.3965958685659065 -0.3354584730420946
3117 1.5760277205533282 -1.0568716712846977 -0.3374033831425816
3078 -0.24982856607749637 1.9761808075543965 0.3657083931396685
2719 -0.21700675253005347 0.21708588732258124 -0.8321441427619369
2723 0.3879278211287056 0.30958107668896684 1.390970638965186
3082 0.5294966704627575 0.37566581940296895 0.014591846437484622
2688 0.03693373286466897 0.4597875553766179 -0.7232174167997902
3125 -1.3267720782436079 0.24536405878329204 1.0329508187922405
3086 -0.345026877124509 1.3364022154969117 1.469553194110049
2727 0.5550700089906377 -1.5066705647471057 -1.3764683889243143
2692 -1.2559007394290214 -0.4344697460452408 1.09273269780848
3129 -0.9846665438932162 -0.9491802642681365 1.3277377194637339
2731 -0.46617121761663916 -0.4420599700185792 0.7001302080532477
3090 0.5384415290586188 -2.7048484952167935 0.22246920878958112
2696 0.41855334549385553 -0.0430408761548309 -0.010252797253025272
3094 -0.08094262958158922 -0.2936620074604617 0.04492237812630716
3133 1.1811764412011339 -0.0035585730672130257 0.04384537101410247
2735 1.6581910220667466 -0.4411390685824691 0.22741636187418846
2700 2.1520547722476566 1.0261376789871894 -0.4842552734639214
3137 0.11183771751821493 0.23227591821696206 -0.5181148376862666
3098 1.4036364992711121 0.7828672060062175 -0.5490336449752433
2739 0.18972611767504882 -0.6441910840186497 -0.09613053907368084
2704 -1.358789783953245 2.3871059087154314 -0.12420736158843722
3141 1.567980219747038 -0.37249719366660017 0.39201096805363167
2743 1.1497029268948178 1.4071391454986997 1.340745862632734
3102 0.1291722531933365 -1.2686886599945566 -1.422632188375493
2708 0.46276443131381195 1.362371327749702 1.5807344345724603
3145 -0.5053939338424411 -1.4672957712312948 0.49310447505740757
2747 1.0520058836572723 -1.9072115550951743 2.1914703404479132
3106 1.8391987728329509 0.9563816387892403 -0.7644964967309197
2712 0.05016148786808774 -1.0390635766578402 1.7503462204706564
3149 0.9768018088544724 0.06456497523565499 0.0907715590693254
2716 -0.20771469309094492 -0.4335606931598021 0.9656648928501672
3110 -1.4629506584005776 -0.7249982183297105 0.5420920312102803
2751 -0.03376939369089561 -0.27963691516251327 -2.2097207316793024
3153 -1.7942013994221322 0.0348671325209966 0.9197053619450889
2755 0.6550326606121151 0.3469828524946568 1.684776539991149
3114 0.20489218019436523 -0.5165150576584229 -0.28750920934728486
2720 0.08145536923418517 -0.21454121450244865 0.662995764082472
3157 -1.114186712963371 -1.414684686230807 -0.4448807317869393
3121 1.4785484138233027 0.41641916596161704 1.6164997017666831
2684 1.3839277290889973 -0.8332218303367174 1.0110859182522696
2759 -0.7524201755557418 -0.2315404961739625 -0.3725170257131594
3118 -0.0133297550597985 1.1890964121294447 0.43000581934731696
3122 -0.017027122248380006 -1.8041118830578542 -0.39212336088049826
2763 1.6190181701087565 -1.4663242442433164 -0.677360464676536
2728 1.7528492985982007 -1.684358876820029 0.2633894428107418
3126 -0.23249015665736392 1.3198237457607425 -0.6825433226081874
2767 1.0859243152608855 -0.7811544489647312 -2.2497538159259896
3165 -0.3185539863536556 -0.2517188718062057 -1.7744786256424792
2732 0.7193493865942578 2.2027712446825767 -0.44129123123342645
3130 -2.3413217463418134 -1.0138821082121354 0.5992566674447667
2771 1.2534747783883493 -1.2950679641739682 -0.1212992725019296
3169 1.0073083101439455 -0.0810205016097898 -0.12069980783654681
2736 0.16299450456322595 -0.22749824921791706 -0.677483346674759
3134 1.2805040934071559 0.8883212047920431 1.0392862353311387
3173 1.9456911737316243 1.9127081741794645 -0.15542049269511973
2775 -0.7435430009791559 -0.5808267931524841 -0.5706097759141792
2740 1.1200769916578983 0.6638814168719855 0.023668846912791076
3177 -0.21982723103172738 0.23356823114180658 0.5706657664636082
3138 2.206214608309465 -0.43737553937277224 -1.4651268986162826
2779 -0.06722513431830203 1.1993910943148092 -1.1759036984455822
2744 -0.9013891831309854 1.1077942436684467 -0.063002578091469
3181 -0.7364957991702952 -0.744346017574706 0.9926764870774323
2783 -1.2388453280498537 -1.0832412457333453 -0.938094087662241
3142 0.11152287610111059 -0.9146624513757281 0.6030037428920543
2748 -0.7659528546536479 0.06199602054479042 -1.077773484538702
3185 0.28156066160560833 -0.5177460170398999 -1.7245980122279552
2787 -0.27275337092929314 -0.3122204134045309 1.8307261273104691
2752 1.348885094486752 -0.5282583604275649 -0.7397663008987928
3146 1.2484101852047067 -0.7904979644819269 0.7413028588923546
3189 -0.5946312891507297 0.24431357620795058 -0.5670809491199426
3150 0.7803426880751636 0.41040896705856167 -0.602145015432588
2756 0.30420413346527764 1.010763093007773 -0.7906971610206802
2791 -0.28406223232384115 1.5709784074528084 1.3014569816463513
3193 0.9904305285581074 0.7962776704382067 1.5409362838903113
3154 0.8059084546735511 0.2936503108550225 0.9782478888315728
2795 1.2556924835031107 -0.2663527362432057 -1.1043803247990986
2760 2.10418350130758 -0.8515529603152675 -0.6909757221844613
3197 0.6436508770885282 0.13153514484274428 -1.587500188769706
3161 1.0034232496220121 -0.08248707749054245 0.12253019179328903
2724 1.2311385265077457 -0.2872573016936559 -0.9396192326982385
3158 0.32305223267621563 -0.0074253307924216074 0.20020159022044928
2799 -0.40674872145840835 0.04472627990470543 -0.3349244113493992
3162 1.102549577807407 -0.3560738370641485 -0.11676114606112985
2764 -0.12498423516365438 -2.07933782844108 1.0845279600540696
2407 -0.8475986615639769 0.6070185388453652 -1.7392402881281586
2805 0.5769761719075537 0.42400273804470046 0.3411157055362545
2768 -0.5279552877136089 1.3512082281278224 1.3416148301695718
3166 1.833659547006922 1.411788861786309 -1.1380928592814723
2411 0.32889846774796544 1.036850667115327 -1.0516931043949282
2772 -1.7329439155269255 2.3085518066006703 0.7867342387290343
3170 -0.8748119796257349 -0.6082244357962506 -0.6908657443005679
2776 0.014278438536828367 -0.8764299109788838 0.025144362872241987
3174 0.6653253885084384 -0.22843722947100878 -0.07463788026283809
2780 0.500903595062298 0.8756952586228675 1.042784759120055
3178 0.3328533138182942 0.06314440334706696 0.360692959993009
2784 -0.011721433953565083 0.47026127993992467 0.11117064218873086
2423 1.0338142607445386 -0.8823456586910599 -0.25480856682658726
3182 -0.3115639525516232 -0.4548390930547528 -0.7632843648723207
2788 -0.6628038031992318 0.14773324524925363 -0.7344608523067353
2792 -0.7263671952108902 -2.0136276268961266 -2.041404176094009
3186 1.3354614080908784 0.23451428547910608 -0.5820461037653335
2431 -1.5687691523511247 0.9843255264156712 -1.126731554569522
2833 0.6942399668377434 1.581393561308059 0.2702993011751657
2796 -0.36001553713622125 -0.9788776238549979 1.402901570620571
3190 1.1580721030857533 0.06252328814593383 -0.03723296105432429
2435 -0.6402058112464295 0.6092662134747046 0.9524720936179756
3194 0.6664438711470683 0.793970721540272 -1.5471864742791441
2800 -0.02426590627032292 0.09941154227557193 1.6819610926557054
3198 -0.893733603932553 0.47846099917289436 -1.0042410118873404
3202 -1.4867770888717702 1.2938593966187446 -0.058562172771747786
3201 1.4645993584776529 -0.3500984607530194 0.9068467741930117
2808 -0.13171980157173818 -0.9326735906715025 -1.2717991806854048
2803 -1.0502025296845587 0.1344410414246393 -0.6343516467906428
3206 1.2826848976004004 1.279517546306576 0.8859333627911142
3205 0.5998392131203154 -0.9837842838520402 -0.3792816147142482
2807 1.2326138791721166 -0.16414315014237738 -0.11725024586719027
2812 1.417968597628837 1.9125632136822055 -1.2887059972752017
3210 1.0331703992484045 0.01090284474760381 0.8869516133088017
2811 -1.244118098868679 2.3674096124540163 -0.5711559835834243
3209 0.6488544651207157 -2.532519872739142 -1.9592207556383794
2816 -0.6724418463706029 -1.4173849203515305 0.4205981754366039
3214 1.7695572453517014 0.5646690964156443 0.8205363296702914
3213 -1.4810780345330872 -0.8075277125620561 -0.2723298094861952
2815 0.3453183109446218 -0.8319632756378956 1.4172138119417963
2820 0.15748267502411603 0.31224495813549846 1.1496459112736002
3218 1.821278125964237 0.32819985238737437 1.3383570471350197
3217 0.7754830590665999 0.3642446834743242 0.38213223853064643
2824 0.3921433091503549 -1.3485099263909683 0.3550676084265721
3221 -3.2803529858966423 0.38572867078062845 1.2681219372154082
3222 -0.47989961729821057 1.0055599399788926 1.0070386702665237
2828 0.03556588446595351 -1.6614633342149054 -0.4321235301223588
2823 -0.48238223119592155 1.057392879975543 -0.4475548076365079
3226 1.71510301348025 0.15501345721416152 0.9565860172997586
2832 0.21442490119308577 -0.2487410445381964 0.8178076770753443
2827 -1.690926494815631 0.3428216225396843 0.20807643100533924
3229 0.7153940425996607 -0.8762416336614207 -1.112468350045831
3230 -1.4335388262818554 -0.18428352369300113 1.784332527702613
2836 1.6940146752843692 1.1525307782264813 0.8269389278677403
3234 -0.5262395516849436 -0.22460057883508544 1.3775484562729592
2840 -0.5146689137163728 -0.5378118948409717 0.7914984602017918
2804 0.47860521646106063 0.6716653956465393 1.1720237903161317
3238 -1.1421479255332456 -1.4373279062717157 -1.983825182876962
2839 0.5814523324688686 0.12159245687545844 -0.11647077645893182
2843 0.031215330103730277 0.28083403444233823 0.01442839377004398
3242 -0.5587613203378499 -0.07494110302635083 0.3545661673653046
2844 0.30779236373011565 -0.6530424812096987 -0.6007841197723552
3241 0.590721968586387 0.7979723870137082 -0.4656116413553899
3245 -0.4949221686100623 -1.4950598552084564 -1.4847416868563197
2847 -0.961860468023734 -0.21161695303325037 0.20841635985149526
2848 0.6916978106370212 0.7035667593700712 1.098260816104844
3246 0.30034894075266344 -0.7066100189936096 0.031108008061199833
2851 0.40328584013346563 -0.27772651792684094 -0.6026319465421471
3249 0.4173520897142573 -0.8234714162532586 -0.0982857295160786
2852 0.32727177127903806 -0.06550532195905368 -0.9421175369674727
3250 1.3954807281586237 0.21450582156697676 -2.106306425263035
3253 -0.4908516549782719 1.4461740113886208 -0.5177245835912879
2855 1.0128859218472903 -2.121756728226957 1.401898401067662
2856 -0.5402994414889526 -0.5703245011846481 1.3851867812407492
3254 -0.3703011229959879 -0.05542037980367416 -1.000285802091885
3257 0.15693237792692413 -1.5003445641455015 -1.1110186508458664
2860 1.2990366802072486 0.9199211981030653 -1.0663961570850709
2859 0.12705175684985118 -0.6397852469644469 -1.1242281520253492
3258 0.09944398441822636 1.2912722809976798 0.5585729662352132
3261 -1.0062671468190656 0.42758921111176496 0.18620653318533625
2864 0.449187726699392 2.2991415329267024 -0.20587748578241435
2863 -0.0008221841901863894 0.49135604571479913 1.6985148079400652
3262 0.7601930817747038 0.13990365816269806 0.4307319336858406
3265 -0.37015506304363166 0.33739780474812076 -0.0803331786075118
2868 0.07686568531636036 0.5134082246271402 -1.081412226078314
2867 -0.4285857314374291 1.597260156141945 -0.07920207666122382
3266 0.5272326176297671 -0.8019923943918978 -1.4739038085169636
3269 -1.465610687285416 1.8397819400445723 0.2542732092127668
2872 -0.012509825328941456 -0.6897172904567956 0.6776486988173768
3273 -0.28364303153004644 0.059343001982558805 -0.0019730634188150427
2871 0.699411415475333 -1.389691678676908 -0.8058305421364873
2876 -0.5770529720293333 0.4717219369451142 0.3666354221975144
3270 0.8800516620024067 0.3959419235387639 -1.2416439102738401
2875 0.7956640980310108 1.8123869289721295 2.162069090875655
3274 0.8446868055901678 0.8985206748041099 0.21428743910368717
3277 -0.020853727659165638 0.5116462352841658 1.6577813432998867
2880 -0.7938656754547804 -0.40540555650131443 0.9488960358620143
2879 -0.6552411127497854 1.2422605374126834 1.369242359684909
3278 0.36195823975127517 1.338149952599567 -0.8991029107565524
2883 -0.620001237594336 -0.9068491124540629 -0.3131272602886646
3282 -1.3809805913842976 1.1757243085397122 1.2328884943127878
3281 -0.23696030423008627 0.10679813264423997 1.6395709909516647
3285 3.1172782701718793 -1.783831561337528 -0.9714886328975724
2888 -0.3341444813032527 0.8520217585720465 1.0605677992527864
2887 -1.0409662193165505 0.8870176567441102 -1.0481608132526878
3286 0.9191407794977761 -0.6228255251079864 1.0232331688601195
2891 1.57897115812435 -0.6060585552597102 0.45374400428173733
2892 1.5422345266260575 0.9078414820145683 -0.6922575469115071
3289 0.8619175109570627 -0.27085526279452793 -0.16715887675820262
3290 -0.5899832941921341 -0.3095713048963786 -0.6445241687325665
2895 -1.6791404731447146 -0.5678031580797267 -0.265348884700113
3293 -0.8122100367800091 1.5671865784235937 0.6691478711066937
2896 0.08969310613765756 2.0071780435644437 -0.35907892798908186
3294 0.3981901157627392 -2.4507309595780473 0.5921173249502648
3297 -1.825257444976617 -0.6295509165732197 -0.841047381784054
2900 -1.519147352224666 -0.595271532610614 2.9053189245815227
3298 -0.1079693888870355 0.5215917202445581 -0.7912980907294528
2899 1.7973299074962632 -0.1982266112886849 1.1854750606242572
2904 0.7314176963407356 -1.3317316504108165 0.33051926753416955
3301 0.6413446594110874 0.7286051276069341 0.31090038600673464
3302 -1.0283754553728452 -0.35975584822527124 -0.11726760751064555
2903 -0.044709229535781304 0.1919345378544308 0.22508962920158965
3305 -1.1085728272519744 -0.03404379000820959 -0.9326214420602148
2908 -0.3342799230816273 -0.6538890433870292 1.7619834776738765
2907 -0.5272928306034337 0.3100810102229247 -0.691300729191518
3306 0.2856052487354822 -3.012840333889184 -1.1454632313530861
3309 -1.27982882494092 0.6686351632679493 -0.09279846955953708
2912 0.6949979540815013 -1.2556314797791726 -0.561809642129219
3313 -1.473090439555501 0.48880862110179374 0.8201830866868779
2911 -0.4418593973948365 -1.2774846178739534 -1.9525035787793998
2916 0.27372490376531866 0.09514519513327484 1.2389264104462103
3310 -1.2434838579279173 -0.10070475260544377 -0.7934354562825776
2915 -0.03859021779369175 -0.9004368206802473 -0.835638516146437
3314 0.5208570585613975 -2.078791857152641 0.6030052035032962
2920 0.7066813414589224 1.2794339711339624 0.11728146196824668
3317 -0.10721294414016237 -1.016153973024998 0.965204699605475
2884 1.1836820606370277 1.3455404260576973 -0.49010453609129145
2919 0.2054672548063769 1.6953184021164245 0.7208061905924934
3318 -0.7805182775389413 -3.2935573328392733 -0.8282480896264995
2923 1.2762908394667634 0.4006994713646719 0.23100186513369436
3322 -0.9047511011434384 -0.3898065768681056 1.5679568456327613
2924 0.260090164572089 0.7793461357453427 0.9386818179762095
3325 0.8294714969338204 -1.1321466069793664 -1.5301697609472282
2928 0.5607887080304882 -1.367779192654612 0.0016303146020650507
2927 -0.2827965549341663 -0.33477296521388045 -1.3265538445581075
3326 0.4148694225491245 -0.1906947266259355 0.11855469693435972
3329 -0.2989881801107284 -0.04904005461371489 -0.17985867793341034
2931 -2.0022643885898166 0.2335671067750206 -1.4164821975454234
3330 -0.518116304867351 -0.25100627682963483 0.3723196764190797
2932 0.3723393285408182 0.38478148343605884 -1.1567313116424307
2935 0.5725701100908807 -0.6762782809941663 -1.7014947089142964
3333 -0.7052441576189212 3.148619304857047 -0.28365248083516387
3334 -0.5200172022103757 0.5086555939022915 -1.443323264541853
2936 -1.4061317351709384 -0.3265269431841897 -2.03557164524403
3337 -0.8482378731299544 0.4343919889108405 1.8334068987491698
2940 -0.027375484771158237 0.015970635360544713 -0.6694252777482317
2939 -0.15432490780880284 0.5233572534086888 -0.7982106425409651
3338 0.6158377579085941 -0.6295615073048567 -0.5403120910035685
2944 -0.9398063451811526 0.6571033767809215 0.19254163145437422
3341 -0.13280707367075464 -0.8018711533311792 0.37380786171813907
2943 0.893969498505819 1.7224350304670375 -0.1458504263331451
3342 -0.01839161541818781 -0.3980874758308253 1.0107399186416597
3345 0.9455061382748328 -2.1746643969121893 1.1117462586916427
2948 -0.9135835011344773 -2.1491567877197464 -0.3592226243390162
2947 0.7467472414565933 0.9329638689929102 -0.8322277938740913
3346 1.4191547392006671 -0.8188944941916302 -0.6911178451972726
3349 1.2418526188399264 -0.33685244360997463 0.26340306918979495
2952 0.3543016472989889 -1.8498363176224217 0.2692600317537242
2951 0.18843315025972376 -0.4964468171487884 0.13764607730380618
2956 0.8997795512089989 0.34992644820569146 0.22082242938457944
3353 -0.7536132024520237 -1.4159869897003623 0.7278032017874665
3350 0.20802139413020965 0.488067785513134 -1.4626713484542615
2955 -0.3727380894601899 -0.02404306700011117 1.1073213161222264
3357 1.1271965308646326 0.6630619831764488 -1.9824506370912107
3354 -0.6098340348342532 -0.856363193430835 0.6099713319130934
2960 -1.2853706001493572 -1.4441243075206698 -0.7119029019932757
3321 -1.988754583440198 0.5744263179354707 -0.034170136287279086
2959 -0.08034779972007307 0.20947529305762555 -0.6197515309549126
3358 -0.1603961244208017 1.4151237879981025 -0.16802338302642061
2963 -0.34965462835598665 -0.5067157785570673 -0.16357050943749984
3362 -1.6107806840667582 0.4068962508075157 -1.1791972038413936
2964 -0.9166437829083133 -1.7299423999240946 -0.17680941029863834
3361 0.8284075454507064 -1.0866309986615914 -1.062400586403128
3365 2.5633856548616754 0.9483794278638862 1.45846546493644
2967 -0.32280767336873684 0.9055877798336501 -1.3976090123535108
2968 1.7967240877164532 0.06094522487346204 1.046172741846861
3366 -0.2213598769236475 -0.24868681017640615 1.5812120208593947
2971 -1.98079076069983 -0.38141183375778553 0.956432355359834
3369 -0.1524086632457041 -0.19240698981605084 -2.7767030352230746
3370 1.9864887713977277 0.5949892338081378 -1.0321348780007107
2972 -2.1799586114982037 -0.24576681342890283 -0.15086263469880606
3373 0.690405517845758 1.4185843552610944 -0.3181407483537255
2975 -0.4327595273572041 2.0645678911079965 1.6795917978262107
3374 0.8468456492229135 0.002253558191203862 -1.1819992547960299
3377 0.0818655399693475 1.0285329493028155 -0.17796862989219808
2979 -0.36021895270786297 -0.959137524301172 -0.6719332590176285
3378 -1.7541608048622288 -1.0836378970941378 0.7705710981967753
2980 -0.6507584202734725 0.1480002778794559 0.9057170375927656
3381 1.6082980471311579 -1.459244940011024 -0.5538128900220701
2984 -0.6826720827390602 -1.337199090763979 -1.044273442657235
2983 0.04408170027122919 0.43130635128514233 1.4949139510730811
3385 -0.9172015656589502 -0.6288927082667787 1.0730325244470411
2987 1.14450691176748 1.5802887116999211 -1.481525932367021
3389 0.6411055741359237 1.2573250685577804 -0.8356142844161412
3386 0.05690770404837093 -1.073860569270673 1.743065778705851
2992 -0.5296615115767959 -0.16399195635547292 1.5987472239481448
2991 0.16111989674029467 1.4967259246987024 2.19958859412086
3393 -0.3204198795920877 -0.20682026121426925 0.12729370885737784
3390 0.7925259132770934 1.136122089647292 1.299303370406577
2996 1.8238534069656884 -0.6850199305916328 -1.886241736491502
2995 0.9230376036110346 0.5245207716327651 0.6256517297878631
3397 0.008970410871546812 0.2985478753182989 1.3559914956959545
3394 0.9698557284191419 -1.0774316811115503 2.167694434796261
3000 -0.15365708254418103 -1.7637390023506458 0.43121244456968505
2999 -0.971473272495266 0.32829961868582364 1.2420880641096999
3398 1.056643861353538 0.012320276297994594 -0.32866567920892276
3003 -1.4842032530746194 1.155957320802474 1.3041008442131827
3401 0.011892561057316493 0.5968308435726573 -1.3629465718939842
3405 -1.702748286770521 -1.2472922345725383 0.3618790492274369
3007 -0.014317289656805196 -1.9605204226387056 -0.1375206311213053
3011 -0.3018236817041664 -1.1136704404859645 0.03463026912361106
3409 0.10388433066674992 -1.7666130496796524 0.21489606014474874
2976 0.08284942162313572 -0.755329002549362 1.1165184760950633
3413 0.04148801154511377 2.068721828652142 1.1481399895712685
3015 0.37787800813923167 0.14185057575301144 -1.4929257997377654
3417 -0.2714881672173924 0.10129243144406017 0.8157689785861695
3019 0.40992844399667483 -0.4437087918857933 1.0215679755276976
3382 0.7652317792350127 -0.24347176841150792 -0.47541772624171275
3421 1.2906979517240451 0.7577887234209157 -0.645905696526541
2988 -0.057945942269422804 1.24140484107246 -0.8442337190020701
3023 2.1728248281165468 -0.44862322916906094 0.895870606741843
3425 -0.592126827418544 -0.2876472788038916 1.3525749009897015
3028 0.11666343374963897 -0.9225518627272734 -2.6746717652813365
3027 0.2820449594764345 -0.4930874490332265 -1.0879269881735465
3429 -1.3973131207945728 0.5112337397016953 0.9822751977564665
3031 1.579009092934838 0.3312138790339285 1.4188265136296374
3433 -0.005534446554564222 0.0867130374535413 1.1363561999185101
3036 0.1805965463218239 -1.0266271972389374 -2.333283735981461
3035 1.560992858861141 1.233939937415117 -0.3962248971742517
3437 1.1761664174155493 1.3535865348453606 0.4602709475541161
3039 0.07360381605733955 -0.33298269945613285 0.4671695905019448
3402 0.3456679920989794 0.5756535426777453 -0.7795122717859496
3043 0.1434645365343438 -1.1696353282816088 -1.1197357992663541
3008 -0.3586223822772585 1.0578340862709077 -0.9154549105280085
3406 -0.10245777481676294 0.2074070147528012 1.9544509940161774
3445 -0.5293106338423638 1.0961065075207133 0.4104652479525647
3047 -0.04344217018679448 1.3598464311092655 -1.1987028556992931
3410 0.3020173690683178 -0.2841802601241277 -0.299451537897844
3012 -0.4992753780840933 -1.8296831066111237 0.9101461989290285
3051 0.1880440215181583 0.36174995198611726 -0.6555079141184128
3449 1.9154832629028613 0.6083594358470997 -0.35451049683003083
3414 -0.7763871196550156 -0.8100701275538778 0.2986717324661461
3016 1.315041560333527 0.5125070235160416 -0.29554896460576335
3453 1.0643695020720185 1.327873966883454 0.40843388825426447
3055 0.7003387331733432 -1.2134849787974296 0.6033244689795223
3020 0.3365419477095631 -0.8428285934453186 0.0968616802600354
3418 -0.3144595743238169 -0.5612390323152945 1.2411817843743473
3457 1.205346507789239 -1.4394073555134588 1.2180205335798788
3059 0.5669958783785152 0.6537707245539236 0.05500652257715667
3024 0.2658894643515965 2.157299670256525 -0.3925658678107827
3461 -0.0001264286352743224 2.8457855925653917 -0.19624602909539784
3063 1.8885777458336765 0.10299416950868802 0.6014056084893891
3422 -0.7480675698408614 0.41156530315858864 -1.2914384223499995
3465 -1.1035049454003745 0.5604222280818526 -0.9895860548932103
3032 0.03725279697881187 1.0578823479077242 -0.11721544017091412
3426 0.06512230333921298 -0.6887888995119013 -0.45218093123326825
3067 -0.01505934381026316 0.43068324600888275 0.7622427661266461
3469 -0.5182394934907262 0.13298966336966977 -0.008561730950568882
3430 -0.3546761980799886 0.286437709406619 1.1906828065941493
3071 0.9870591740712005 -0.5970951338301621 -0.8859457275087377
3473 1.7937943591711771 0.6094782117740433 -1.115586152687504
3040 1.0568427394007214 -0.37834081100953043 1.4323626267360785
3075 0.3939008492978337 0.40171659352802186 0.44736807739257295
3477 0.3665684242755449 0.2679649124677308 -0.9564022018857901
3434 -0.1344836763989107 1.5721519419149366 1.4017286599600134
3441 -0.4263792958374141 1.5216807568221995 2.8942514977339213
3004 0.19836966203859357 0.2921251994116932 -1.1073766183131115
3438 -0.04287772813701244 1.0143130252933197 -1.1792579551987046
3079 0.2568335851565237 -0.10147098870917769 -1.644722241496556
3083 -1.8362854606899508 -0.36104139689805026 1.1801348760364956
3442 -0.8528990410718246 0.06867802282198467 0.10109784553849961
3044 -0.9654430543530497 0.9243640890511416 -0.8334839570130199
3481 -0.27377684131411056 0.608446712228069 -1.8505897930854178
3048 0.7613973966569676 -0.3535607826287059 -0.36012156563172587
3485 0.017045186944361683 0.540933973021608 -0.427476217355214
3446 0.9987661652156664 -0.25577339508632463 -1.5796320897815583
3087 -0.387613389209681 0.24870427742956808 -0.10082971917987173
3489 0.3387236378470769 -2.8907236723907506 -0.38969605311584316
3052 0.3098484498520266 -1.0854137257458674 0.3581315133664957
3091 1.584463079962771 -0.39980769214611706 -1.1097307022234153
3450 -1.4934079325140546 0.6620877013082576 -0.5378648969204674
3056 1.4050201375763958 0.6994529812297122 -1.0642965892045617
3095 0.6462195759760703 -0.8585413237515994 0.21565990886717265
3493 0.9604930149721155 0.9964464069540904 0.40796670650657796
3454 0.13097808438301523 1.3633507541618188 1.3962458163453197
3060 -0.3236547565250974 0.08157743027292005 -1.4137151937715162
3497 2.843715867891063 0.19280766170638886 1.128404907135492
3458 1.3689748613966923 -0.8133237193604403 -1.0432927751861205
3099 1.2085101593836756 -1.0192747286937058 1.6495331612444968
3064 -1.894443416162575 0.22947434202724287 0.09638695286120826
3501 -0.7301710998900443 -1.0561296407113838 0.6946058904776589
3103 0.3820505539945972 -0.18530735141527843 -1.1768235705273358
3462 0.21178269551636142 -0.41015167007467324 -0.3568451249956942
3068 0.5786582650673515 0.7740373616786794 0.8864370894200375
3505 -0.17964253539320216 0.6162135422498795 -0.6844168770729253
3072 -0.7237218286380527 0.5920632088541425 0.41090423949343935
3466 0.36964101102061403 0.4764916245494912 0.310571503062519
3107 0.4601936949738618 1.168049036495584 0.4173240666232327
3509 -0.738900586927028 -0.43383948498571795 -0.9646841290933922
3470 -0.1780207382458896 1.2141330080864257 0.6841522059782426
3111 0.5418871561970708 -0.878078488477992 0.14413350335928046
3076 -0.34805089583058685 1.7711691444772562 -0.5447011629167569
3513 0.6724598679554282 0.4205533271196882 -1.773609090750564
3474 0.16066713168117905 -0.9224102074027896 -0.13005244261623117
3115 -0.7287423575550931 -1.0630279146550883 0.02120060217451177
3080 1.2602735940102483 -0.35184789211074236 0.20019609594053953
3517 -1.4193295884044284 1.3493772789928669 -0.17987282756281867
3119 0.525312877713236 -0.46800991002677467 1.5575150474747201
3478 -0.9149234650765488 0.6922486157478506 0.8846056198016553
3123 -0.6789955132951615 -0.6724795400330926 -1.7499611708996519
3482 0.5936116400228807 0.3264462624134336 1.1077295880827425
3521 1.7582222051555163 -1.398199716280006 0.04022613032036772
3088 -0.22428515698181709 1.5033323565122205 -0.4794970055884176
3525 -2.122736643926075 0.6323562565948918 0.5663579415942696
3486 -0.1472316857494373 -0.7688350252214211 -0.13849196826198418
3127 -0.18166276142253807 -0.8088297313415317 0.8814804517972551
3092 0.11514923699756567 -0.0977526613691828 0.45124903934185095
3490 1.8444504371021364 0.9723183197519825 -0.18874405585364806
3131 -1.0398326240489177 0.7051524381509261 0.28415736867706454
3529 0.1161694383633765 -0.31918722254894616 -1.8365693653812432
3096 -1.330124359779042 1.4291102830738198 -0.05853037855353916
3494 0.8920451722919718 -0.3487841489814219 -0.1596738067142788
3135 -0.40189843708898654 0.841305981567737 -0.0030850825894902824
3100 1.0926047856390861 -0.5270954034278904 1.7841463844766554
3537 -0.09631741874964521 0.7280854609153794 0.33144723358030775
3139 0.3836873557755223 0.6149905986907271 0.0637393967876379
3498 -0.7096308664776269 0.05523655393659278 0.4916421071018767
3104 0.9938648008707867 0.8299577716655134 -0.01176323291715543
3541 0.5637820405621453 0.9581405233492657 0.9052174955722159
3502 -0.17567374320003212 -0.43886365233150776 -1.2958554878050075
3143 -0.8759686357561084 -0.9423392678405828 -1.2761179816381203
3108 0.1736451532120515 -0.79676662153932 -0.031101200277519076
3545 0.29870945345045385 0.07609635488194506 0.44790395452232695
3506 0.8149090177868794 0.11613756159419426 1.663280113450128
3147 1.3253709386357497 -0.6443301266551932 -0.7336346265928145
3112 0.8154752029423664 -0.2173794120824094 -0.29147500334682663
3549 0.40003447669640196 -1.1620994913174645 -0.46483940752930886
3116 0.915820359535607 0.46618913156522973 -0.28403725503988303
3510 -0.5435827028460011 0.676336447237063 0.6562725078535331
3151 -0.48196082456800676 0.670788880463831 -0.17759860081897483
3553 -1.2996448014598572 0.266582687042744 -0.03223883555821115
3514 -0.5793598814676404 0.6530462461989958 -0.25614995689740594
3155 0.20830027944417875 0.5655599279272714 -0.5471165303812228
3120 0.849542936046747 0.42107230961857306 0.5501602652373079
3557 0.3849018150361618 -1.5629149106858233 0.11754641300143182
3084 -1.0622693911842964 -1.3129594927286135 0.5591660738110814
3518 -0.12821183373153922 0.16866323149726428 0.36384665288367235
3159 1.339135831211219 0.21120780926570623 0.9191770555546874
3522 0.7436385497850926 0.5636824647176358 -1.0890095289244182
3163 0.14089741328809594 -1.1892891761645 1.652347416317957
3561 2.145005057343141 1.5592377014418353 0.6495475217777491
3128 1.0997366933977928 -0.19026981889023306 -1.4761428470434472
3526 0.7204015220062925 -1.110427532183361 0.21142473653922308
3565 0.46095171045588124 0.6054037868327675 -0.5152217357638555
3167 0.1593803846371588 -1.4364991868958967 -0.5505511938587621
3132 -1.1452861918774244 -0.29979895870763 0.5582509685483632
3530 -0.4825296465089021 1.2895393646366051 -0.9957076677230831
3171 -2.122211086200746 1.8617572342383981 -1.4719683980078142
3569 -0.42980896552985143 -0.4483154641811503 -1.6559583151648103
3533 1.31092737758844 1.537142712470759 -0.5195506572846389
3136 0.5448986273784121 -1.2157782496549143 -1.7849503157095654
3534 2.748926037694356 -0.3799528280374813 1.3899734959886445
3175 0.056860308075564636 -1.008616512528436 0.48120039016147986
3573 -0.4642607652214958 -0.8939500608219678 0.4174348815416637
3140 -0.6906747064105883 0.6322550670318315 -0.05371695487261079
3577 -0.8433714328614145 0.5884781393626861 -1.17570669823483
3538 -0.7994912809637996 0.7455651768535847 -0.7842309871497696
3179 -0.5952287255637749 -0.12300914693259002 0.517520188937802
3144 -1.8714448057499162 -1.1402315715962916 1.1611855540914473
3581 -0.567541616366423 0.6230559534065698 0.20596748058495556
3183 0.39230983033093964 -0.4580210716077348 -1.0363042776102513
3542 -0.25931923017739994 -0.15564828243950848 0.05172869946129053
3148 -0.2351888809238696 0.4541732159934135 -0.6945426326885978
3585 0.3063796797905267 0.2499528347142715 -0.5475239581717856
3546 1.2390363857131155 0.8349924236238705 0.7750765459505381
3152 -0.7336552332938758 -2.1936291382873843 1.3979279754618152
3589 -1.6169545522845565 0.7903878978706851 -0.42129954042445117
3187 -0.531842427059926 -0.12642779052184988 0.6697876114814307
3156 0.5301714353148694 0.5592662904150388 0.9500776779457127
3550 0.8137150857215671 -0.28034154777344894 -2.6124585674805743
3191 -1.1089050399734357 2.6255735193537957 -1.1868343841250177
3593 -1.1639866508531977 -0.1302901866234601 1.1366597102629141
3554 2.5751803960256305 -0.4579107133678518 -0.38753270563814673
3195 1.049420368004063 -1.080494070068681 -0.5526958128117611
3160 0.1547413269993927 0.5269829644559465 0.9003977280589891
3597 1.0145834025493983 0.9447130675174928 -0.557152735051284
3124 -0.5180881964450076 0.07008791138460556 -0.2088855591738418
3558 0.5631540136737023 -0.8512939003961331 -0.9858438968882792
3199 1.341509934316121 -0.6708728914306916 -0.36379039263802665
3562 0.4185967007643375 0.8206745998707812 -0.19673568158279015
3164 0.8699984310481111 -0.2485981138325718 1.407888781231771
3168 1.7560397468571523 1.0239078511951867 -0.1275437441674442
3566 0.3891350517295664 0.3324028700620446 0.6487460638063424
3172 -1.1262055840780576 0.7622564251430155 -0.49819422807565283
3570 -3.4496388717947823 0.23049282085631506 -1.375957140190502
3176 1.714419187656537 0.23994780626040446 0.23886486914545058
3574 -0.5665070756950209 0.8507582161351117 -1.2036183299954162
2819 -0.27943354784881064 -0.15850291902086044 1.4582068768732483
3180 0.5033105193264182 -0.23773000691633722 1.3872508258364837
3578 0.5388123851053171 -1.1018144556108214 0.01751073167894033
3184 -0.7060981403906317 -0.6895216462032407 0.12556499615324968
3225 -1.2684957375684893 0.5226492936243515 -0.24535337750830744
3582 0.841058672923646 0.5278866126088821 -0.5907763801926428
3188 -0.26001708462681744 -0.8811222742536998 -0.2579048646398982
3586 -0.5133999325060422 -0.898805618854557 -1.891697434881856
3192 2.9324913936206474 2.0502332596633313 -1.2122786190309713
2831 -1.9981146276410977 -0.390958677282772 -0.6046024114398004
3233 0.04724153493886711 -1.3204349697461515 1.2557895334398428
3590 1.7898383641642657 -0.19895691689387052 0.8287062337102962
3196 -0.9335779087606526 0.8645910538406256 0.7705980595408454
2835 0.8461949841326389 2.0024434084202256 -0.22398117093993852
3237 -2.0869708412706425 -0.17377606589979036 0.369839072552982
3594 -1.3236050960329189 1.0847635323654399 -0.8561717641677802
3200 -0.6731406805969824 0.037985078283476095 0.2274662185750157
3598 1.039116281251592 -0.17741694961307117 0.9222675987917169
3602 0.5363892082644663 0.7860586686503445 1.6270311605878907
3203 -0.05290162250500043 -0.7387826023753551 1.074683304315786
3208 -0.2641999255278062 -0.24211411555468013 -0.30500780239366443
3606 -0.1953149525210926 -0.34209232781158866 0.5035647166484796
3605 0.0929302797090974 0.6355330004508354 -1.4560222494229207
3212 -0.2936863234976449 0.3039083801297025 1.0580040317398431
3211 0.4139508879242245 -1.6657759561306202 1.05952558871698
3610 -0.9064459064207085 0.5026762337190019 0.7626713894641756
3216 0.16514213345775763 -0.6302889221127288 1.0888250837925628
3614 -0.8969748266027933 0.22401292128526734 -1.164015858409587
3215 1.2363382229814301 0.813999444995454 0.5843462958641188
3220 0.5120502289383442 -1.5697046376684773 0.22501515664530683
3618 -0.8251242473573281 1.6263363670533812 -0.7004905982969686
3219 -0.5956605418606796 1.43659824323502 1.008670886487032
3224 -1.1156052318910583 0.7776722181266645 -0.8899713642820205
3621 0.5853594877050224 0.28208272452390504 -2.251038804589745
3622 -0.7132604867099215 1.2464476722539544 -1.048249430149329
3228 -1.3786678301638984 0.9635705584323774 1.9640369521596923
3223 -1.5252925758215177 1.4249328994566144 -0.2921076526666393
3232 0.15545292103224123 0.22155979564615894 0.43440125661301154
3626 1.123941145909815 -1.352956064084948 1.5960729408997594
3669 0.23403633528795995 -0.8479942857815764 -0.47602832183284477
3629 0.4819108679204001 0.00028388523083919774 -1.2157347757477672
3236 0.0002712731585636007 0.5873373310467639 0.27560875755624514
3630 1.1860264600662125 0.5372510896674396 2.257217014771458
3634 -0.18272127671100366 -1.286723612799133 0.7109742644991501
3240 -0.3594291538091652 -1.6239264068404555 -1.4861060919880609
3275 0.46705978388308506 -0.9983741495869144 1.0864833582312174
3637 0.44479498941205975 -0.34851474636603635 -0.9892871536633437
3204 -0.6379919548313274 -0.5245445722052581 -0.03374351321921413
3638 -0.3645796950230267 -1.1612216378312774 -0.37365857282409015
3243 -2.145647550257079 0.19286418099001168 -0.07184046273311483
3642 -2.0107782423939184 0.863481179151202 0.690053854354632
3641 -0.42417434895630807 0.32621728532625527 -1.612466480095609
3244 0.524709265790374 2.1484787120358533 -0.09472611380931208
3645 -1.395117877547745 -1.233535605825 0.43192440096414797
3248 0.8315757596851068 1.4962578908690538 -0.7464386223188402
3247 -0.6820791853554921 -0.6164622931827977 -0.33920046931633646
3646 -0.24678340048667755 0.965493453375509 0.6713535212146649
3251 -1.3881736960472033 0.6716284910666876 -1.1798539852235737
3252 0.44766636043741953 -1.8849910461619055 -0.24030260301943188
3650 0.02423858650596079 0.5168723645753333 0.3982361198039006
3649 -0.49381686761247207 0.4650038807646447 1.3556342343107837
3255 0.11474134846367072 -1.0593931716307672 2.0308176341551833
3256 0.3338924875696677 -0.2377458819222347 0.07016896511640651
3654 0.2658748454168205 1.9419875713215122 0.30777412373197427
3260 0.2933267978421819 1.1739130418571087 -0.2172983310772061
3657 0.2488708017451913 0.4281658738225938 0.6685267566854215
3259 0.4868051234884948 0.20547936439359146 0.794683470215507
3658 -1.8911018429482875 -1.0283805522865703 -1.6302044678375565
3264 0.6060652400309059 -0.7516161299439976 -0.6788869938163263
3661 0.5260689687677021 0.22090586669051018 -2.295736934879031
3263 -0.39672001056850803 0.3253349461312066 -0.9317707150894123
3662 1.1305220836222845 0.9908672567251047 -1.1270143412256255
3268 1.1021494431172614 -1.5844222749488694 -0.20214391135626095
3665 0.06315945894954725 -2.173417783081309 -0.35500110357057246
3267 -0.2858672191386495 -0.7651976820713258 -0.8148539231454105
3272 0.5901656905316556 1.2314631240257778 -1.4298572083796013
3666 0.14061122154062727 -1.4322264701598275 -0.7736282090047006
3271 0.38158325480331634 -0.7963066985671501 0.227127268885919
3276 2.616987915220039 -1.5600739253783122 -1.3537215953251949
3673 0.6206962934472748 2.3779510458492585 -0.45915684194806
3670 -0.13009841898247995 -0.3761399255411959 0.910216222101654
3280 0.8719417388752574 0.4649017310823371 -0.005998639675282421
3677 -0.864967948782784 0.03074707078539605 1.3291389170342942
3674 0.06124177017684993 0.32187531878976633 0.6678313946607177
3279 1.6314151533029184 1.7475036127148487 1.0821814304304014
3678 1.5567367292915433 0.4498255128810878 0.7339766271455288
3283 -1.213493177649301 0.8422270718969798 -1.2607390826355316
3682 1.8085555899943415 -0.7038039701250225 0.7095268848788807
3681 -0.05414875727877094 0.19117972884650625 -0.8912487470134812
3288 -1.9962455479381638 0.09142514556994559 1.1821079184033472
3287 1.5373972390068462 -0.20864582343987811 1.9178580047856062
3686 0.1814728020319582 0.2825951373202765 0.1441324118902182
3685 0.17562726810967969 -0.4753575717254918 1.1350794735923015
3291 -0.1004471649918193 0.6064750307269337 1.6499598832373232
3292 0.4579500034445769 1.2991934463816974 -0.5028989456354697
3690 1.7945502485073943 1.971552295359663 0.7867269431786271
3689 0.06644658350286882 0.8647591278841615 0.35754672666896425
3295 0.6721107991589191 0.2063948071302379 -1.1385360826735356
3296 0.158858853179318 -0.6899745679391407 -0.628979888381791
3693 0.9815262145967146 -0.788902035071158 2.309223657184675
3694 -0.999905414342596 0.8151059255287008 1.7165685993056883
3300 0.7980469421601968 -1.5600792174944744 -1.5158248905055356
3697 0.3233664230290702 -1.2678386924363387 1.014336968887374
3698 0.39784518180281386 -0.1976280092393592 2.1752385436190793
3299 1.2951355393999757 -0.6526681997616712 -0.019392680335782154
3304 0.9593467346753523 -0.49015751000699004 0.9360922457505497
3701 1.0114548830746493 0.004137969991535353 -0.24777764640802313
3702 -0.12404050579012277 -0.2764062743121049 -0.3516148394607581
3303 1.4261410382327886 0.32162183599976607 -1.4034270824869646
3308 2.119212168909383 -0.35523092708363163 -1.813283104690804
3705 0.15491207244740515 -0.061421805789214336 -0.6025888147531138
3307 0.6709454008101373 0.13691295743794707 -0.9083525900379401
3312 0.18082671427236846 -1.3912810682540742 -1.2395392496161732
3709 -0.20109395087275292 0.8043335293972048 -1.3939732715931836
3706 1.07976944343295 -0.9360007545856583 -0.7712864786699433
3311 1.1725700820675102 0.32096857330288076 -0.8125514208515587
3316 -0.3880260939690484 -0.14190080591073873 -0.49976391821823707
3713 0.3609896193966269 -0.514610004973078 -0.4669839326368461
3710 0.46504801320028055 0.5459212651086996 -0.1300260818210562
3315 -1.0708552101254583 2.2050483889919756 0.35736582718851095
3717 -3.2388873572854955 -0.800784982996633 1.3127466376394255
3320 -0.6361607948255489 -0.3162185931480376 -0.15378826482229285
3714 -0.830151416982419 0.7208505843519478 -0.010860161376883134
3284 -1.3527782296756077 -0.6336109736913949 1.5692325248486585
3319 -1.1382861118995373 -2.070817054019503 -0.27104972310142256
3718 -2.161052266967113 1.2966631649463172 -0.2387438050202711
3323 -0.16692321288397197 -0.015331425023969107 0.7320881099575791
3721 0.13417187829004343 -0.22844136382623906 -1.0284986002998258
3328 -0.8338956955204216 1.1380545718837929 -1.1813987283723253
3327 -0.6437300470940692 -1.0522975985405032 0.7206362216933406
3726 0.25929414125494765 -2.0255340236470594 -1.0886231044337153
3725 -0.10303860380921817 -0.1325855381916808 -0.7315835519094084
3331 -2.2571395944169783 0.3415630201864909 0.2498238969018987
3332 -0.18411741541712895 0.20139115512298325 0.6373511117332403
3730 -0.1891685249913011 0.6910849595744862 -1.8212552422902202
3729 0.3908575427487799 1.5131999470602553 -0.44615543344824726
3335 1.1240820055096914 1.9719238146715565 -0.12636512693259688
3336 1.1911200752669762 1.6211841656398014 -1.0831950578170682
3733 -1.925118429100152 -0.055630069558943826 0.07771711063791417
3734 0.24822334211780855 0.38729250528750775 1.0173152683125684
3340 -0.1428424284549294 -2.1545992388691877 -0.9563981435023922
3339 -0.08936671676336283 -1.840264006621192 -1.4513325691281773
3737 -0.17430048275246393 -1.3478782906969782 0.05709408157714459
3738 0.26223234723965094 -0.68018982418472 -1.0220521209758835
3344 0.511598675423584 -0.4732531600705492 0.11778850375995736
3741 -0.8996776120562268 -0.26243633222164503 0.5801878696538056
3343 -0.14502473814391217 -0.8185006644074784 -0.5859649683480043
3742 -0.9755048194157167 -1.352337134153346 -1.4454744596911433
3745 0.23239662052756266 0.09930056019704205 0.8625080259867879
3348 -1.120685004214464 1.7596904729028757 0.6786002089371916
3347 -0.6782482275408037 -0.93976704603542 0.24061434216054642
3352 -0.4597818880144689 0.6863829329101919 -1.4174012734474728
3746 -0.7704171927277911 -1.386817687474105 1.6927286927910281
3749 0.9838452906023665 0.45759392692989115 -0.24161986406991534
3351 0.9135366590368654 0.6059893848014868 -0.9866265899676544
3356 -0.8503576282038787 -2.0426117317515295 -0.0625178179052991
3750 -0.132223191669911 0.6088909766485189 -0.10913259770909153
3753 0.6396509704162369 -1.7013108573667193 0.30688366036170067
3355 -1.184239716587363 -1.2661898451048315 -0.09467772565488204
3754 0.9003570385888159 -0.8624316868226357 -0.2817117851957856
3360 0.006954612660854723 0.6320273531618695 0.3365547241286562
3757 -0.8961349835870045 0.9388466211234887 -0.5112664136239651
3324 -1.5237338530887596 -1.142088749711741 2.2027721308526784
3359 -0.032163736939441995 -2.0507003385819766 -0.886046881434736
3758 0.34411042932883673 0.3431340290848196 -0.1744879315984401
3363 0.06164108692947941 -1.0064715018389514 0.256404859171202
3368 0.40333677769724946 0.12985642144578152 -1.3670942458044537
3367 0.4293414636187457 -0.360164926955881 1.1885256565116644
3765 -1.7832072298893265 -0.4862775768224997 0.44209450107255066
3766 0.4986488108937898 0.11609575426873503 -1.9017827662193265
3371 -0.42975067465046823 0.7856416369546237 0.5088914568872759
3769 0.9383853876340223 1.4749811698986368 1.745626099490979
3770 0.45613540115157564 -1.864111934868618 0.16669566615109274
3372 0.48503501267226434 0.3886099419747919 0.13033088402697018
3375 0.004342233468012257 -1.268673692410284 1.4610319436628239
3773 1.6161691608943165 1.4472705233836018 0.09835058965107694
3376 -0.44036709143237074 0.5096268398507648 -0.5879282482271365
3774 -0.64719396385575 -0.3798564725224783 0.3755960935663385
3777 -1.2645711338687418 -0.5827960020123303 0.4302598329336418
3380 -0.40787287907724795 -0.25657703526109765 0.0717717073307784
3379 -0.19732798615373134 0.848546380828155 -0.05954815027470101
3781 -0.5564505514630371 -1.8532085367236368 -0.9478668808732827
3383 0.5905097267282725 -1.6095860707587089 0.4860046379553073
3785 0.17074694936724702 0.5886874784842872 -0.9048295486237683
3387 -0.7713755530398114 -0.34974496370414837 1.241679238320609
3789 -0.23684437167888633 -0.061813353306362465 0.4780881006295824
3786 0.7809139068342686 -0.5119928863037428 0.5303900090471695
3392 0.9029044032425292 -1.223590615457342 -0.4074576387662528
3391 -0.08011058887927094 -1.3774910929272597 -0.6125378145837184
3793 0.334990502085914 -0.05699395973742609 2.0633483439949227
3790 0.36418616649314994 -0.7556035506775768 0.9148753139707237
3396 1.480484612532267 -1.8735381696357467 -0.6493940044482267
3395 0.2128685841348361 1.4968725707438673 -2.196638414768354
3400 -0.8259108399188994 -1.4454223968237285 -0.34452910558915995
3794 0.7149293078200751 0.5932559315090821 0.24206099275104379
3761 1.2465491328546823 -0.17387965987584947 -0.45667469130593347
3399 0.3566725656693942 -0.005520676890116684 0.06616744416274989
3798 -1.5043656843422368 -0.966288425694485 0.33690217685967905
3762 0.05497575249978177 -1.126301843230156 0.09396633835521723
3403 0.11210728062739451 1.1385187866157633 -1.5959070697397042
3404 0.21363733731746365 -1.4955997857977372 -2.131741502853991
3805 0.46603908385236936 -1.3162600441221552 2.4910144175864795
3407 -1.7084169600239048 1.3011380901325809 0.10974080502405413
3411 0.7802987755395687 1.8355636069437156 1.5126611387952753
3809 -0.3534278574108167 -0.22928354770583614 0.87960949062426
3415 1.9015393994068046 0.684850951395501 -0.7676554565041678
3813 0.3924257800238323 -1.460415360375007 -0.9437454245048945
3778 0.7641348389745182 -1.0092747722310194 -1.3336247303517097
3817 1.4845176652870586 -1.2200071487182333 -0.1537492327816667
3419 -0.37059853416649774 0.07011365428184449 -0.9117366387718288
3384 1.2298669983216963 -2.0080770020356855 -0.548964283229988
3821 0.26117711146173717 0.2673772025670311 0.6315287441886354
3782 1.2937641369731283 -1.4764614600158725 -0.4136011422049087
3388 -1.1226850489244249 -0.34390130803768626 0.12440350523407565
3423 -1.1306184701260589 0.0567367459764262 -1.789002607314615
3825 -0.34357080347397057 1.0246515907284013 0.0456294434104018
3427 -0.5755371658690237 0.12139786616233607 0.005073667965301528
3829 0.7963075424145024 -1.0225981427072088 -0.1815828833588393
3431 0.4341502027336155 -0.6735494367270918 0.8399996202562262
3833 0.20025026770167703 -1.3092781083517666 0.03663753867250511
3830 -1.7319285691869526 -0.3738101961775929 -0.14505916434494917
3435 1.4968039400856594 1.2677904547671093 0.3981746362398929
3837 1.9931589756678705 -0.5037100354582198 -1.1668846433937534
3834 0.5835849980493771 0.36331929520549233 0.8009684694087215
3364 -0.6818190815461137 0.4320666406998849 -1.4046758877819208
3801 -0.6491642657486639 0.8430458663726701 -1.4637666620683871
3439 0.9502818984470391 -0.0450806124161757 -0.6076634483773852
3802 -0.8777357528316638 -0.6094462680012884 0.11424154508223539
3443 -0.25298718920856417 -0.6604404312352519 0.9020240366387993
3408 -0.8552203257666406 -0.9072314705760517 -1.7559497186886595
3845 0.17970244526760493 -0.06343412718109114 2.196432405292544
3447 1.5350549375804992 0.7916572592318544 1.272019916163331
3806 1.1020798540597818 -1.2884016065403 -0.17127101548466192
3412 0.2157769304905563 0.43266565819539643 -0.9733852394915189
3810 -1.6562709945784304 -0.2218080594494657 0.805975473479552
3451 0.21087306536203348 -1.470136240782687 -2.166468502077642
3849 -0.26872998394185493 2.6468910296481725 -0.7053932937285002
3416 0.5748212130570208 -1.1399811580333017 0.7816031687818215
3455 0.6056811555787591 -1.0285257762862132 0.45559978030227666
3853 0.2610708000338101 0.08344241632190402 0.26995587161171836
3814 -1.8839425345775977 -1.1325458246442375 -0.5778104042725303
3420 -1.5815163929169171 2.6141056658111745 0.6351288357425284
3857 -0.1068700501489368 0.8572675213537998 -0.6102435036169817
3818 -0.5522551540493795 1.0313381974858535 0.5529121714403096
3459 0.8067901962389936 0.9024387679811421 0.7655308291920582
3424 -1.6101357168734236 1.219353559906473 0.0730492355437977
3861 0.11450954870748489 -0.5853535167186587 -0.45620455928984305
3822 1.503798682560387 2.1017793788834807 -0.5976639749575701
3463 1.147508367056504 0.19011053324849173 0.9668660354057139
3428 -0.9114416391346117 1.324750451732722 -1.0032651935482721
3865 0.22852062006096924 1.4039715169347464 -0.4491462416302669
3432 0.5691428475524751 0.7130377243523159 2.1313030435719313
3826 -2.0623282178376665 -1.7332822959154766 0.4224981769611096
3467 0.15310360580490537 -1.5581715060178405 0.5527569961767581
3869 1.064641284469125 -0.14557926206203536 -0.4002313127940814
3436 -2.5651029009745665 -0.05333405352196736 0.49485883692896443
3471 -0.5210828478275938 0.3344644990724304 0.31808688667415974
3873 -0.689109833687848 0.3290177368275603 0.015101882940926287
3440 -1.712514355633849 -0.5553566339056114 1.2825956205795037
3475 -0.3622869328203877 -0.8840915874235884 1.3201894880369422
3877 -2.0048379385660904 -1.1243823163760043 -0.5818428981265634
3841 -0.7396116957126277 -0.05935725592874283 -0.8805039247515151
3838 0.580882918600257 0.7705113877503439 0.3229268401558934
3479 -0.20082196745769265 0.9057408506949334 0.7070894272263514
3483 -0.4082594901598087 -0.6040693342106056 1.3317760523234448
3842 -0.7450529071102374 0.9019136437055578 0.8022010495870847
3444 0.7921641930738876 1.4581860872789538 -0.16958219868357413
3448 0.4744130781775341 1.0142878378220421 1.2679484298949015
3885 -0.009984755668958742 1.3677789573461763 0.32354160018144495
3487 -0.4710463245685775 -1.3710219387566516 0.6267160659355974
3846 -0.8310777865986123 1.4307481115584944 0.01699716081336925
3452 -2.000921275388331 -1.5729249513401633 -1.8420423123323577
3491 0.6051669648121636 -0.050910655615178275 0.5916901157007783
3889 2.32200588266548 1.293739976145105 -0.7763898056055767
3850 0.16584073201224422 -2.7017640734490893 -0.37891517179443907
3456 0.24122231487627474 0.9031105084722074 0.05461317286100042
3495 -0.7601823378076913 0.9065704250350388 1.3877514814093979
3854 -0.3016641214270352 -0.05964834394867138 -0.35218335892355335
3893 1.6644911557493247 -0.18569632259678012 0.5925435439465851
3460 -1.2940345143978524 0.2735432258703372 -0.9380783895497551
3897 -0.5197787873778706 0.5376217349719411 1.273320374862191
3499 1.3248505116420082 -1.1002466068103893 0.1544772773276996
3858 0.5820448010177228 -0.83471533228444 0.6808772706275599
3464 -0.6717021253732964 0.9607283100171585 -0.3044396951740838
3901 -0.7234705101419128 0.7834442508577142 -0.3910952630462913
3503 -0.04894961917879922 -0.45120179275701217 -1.5439348803780126
3862 0.4069153831442462 0.276298300494506 -0.04370030075849945
3468 0.7181852647052841 -0.04117917695020887 1.82483356901325
3905 2.5938084585833208 -0.7226527797872706 2.1232093921385173
3507 0.0921107167549988 -0.06656476852073188 0.6151602285397525
3472 -1.0458046409610529 0.41938770168075895 1.9069596776915552
3866 -0.8506226611877392 0.5837282670811134 -2.5571971064400407
3909 1.38358486377827 0.9096812962979344 0.9711042643842279
3476 0.36877154774000603 -0.7443970352500924 -0.9097666640662291
3511 0.5089953732544327 -0.11935192148597537 -0.4153469306466513
3913 -1.7254574024941647 -0.009604315146012217 0.4997092648486038
3870 -0.7352507480521216 0.7372223288022468 -0.8513202407690226
3515 -0.1315959508187151 -0.25546882672863946 -0.12367588995964962
3480 -0.9444473877544569 -1.1681120919061359 -0.9370512357100507
3874 0.04026265973528011 -0.9953916445684684 -0.37509201109780266
3917 1.1258951421869139 -1.0792587122853614 0.9762201747822726
3881 -0.6071471151027658 0.916467069539211 -0.19515750976158083
3519 -0.5194018946581556 -0.6529979062618996 -0.2162268522397872
3878 -0.5021214805182205 -0.7409415119515207 -0.9779534648142797
3523 -0.9240108252271861 -0.1586699450388621 1.3810619862996771
3882 1.2756990305514695 -0.7034933384819366 0.06294423292621479
3921 0.53595114277595 -1.8376897839734216 0.849585517522544
3925 0.07542711585325697 1.36298746475323 0.8355981038127047
3488 -0.22756327976713245 1.730752665863727 -1.4025485078457482
3527 -1.8889205588012135 0.5252239295704368 -1.047071355073377
3886 1.004190127569186 0.23285709766239554 0.11199420773777785
3492 1.206683547156016 1.2046806522572684 0.3892354050175935
3531 -1.117131662955906 -1.0193253355049428 1.053595976516645
3890 0.41155236053892896 0.9264947394615558 -0.2550747255302806
3929 0.4220641230695059 -0.6337123470484431 -0.8607322857873867
3496 0.7190756370942473 0.704931618305654 0.2171109859586917
3535 -0.9149422800757032 0.5437472083490527 -0.009124659328589236
3894 0.5891964918856117 -1.1291136073558072 -1.0516175409643813
3933 -0.23562091205002092 -0.6759262940756356 0.5832409228457661
3500 -0.6512784097508415 -0.920635615005673 1.1480422372103296
3937 -0.3459550602704297 0.3048086945744075 -0.6760902446318655
3898 -1.0427061017686021 -0.6338124432131236 -0.2450415928794505
3539 -1.0760654554835671 -0.17389421026770144 -1.637818384642039
3504 1.33988975303331 1.0899817902943305 -0.9058029112869803
3941 -0.24238842997291704 -0.2674897420342343 0.266536892562635
3902 -2.426940365327628 0.45569083979953723 -0.12628789522760947
3543 2.5436866010748846 -1.9634742380855608 -0.629986837269231
3508 1.3186666122361423 -0.5740901443951221 0.6373929536803548
3945 -0.5460062759626203 0.37064375461125043 -1.5915587374473814
3512 0.07232140946155355 1.221913174657382 -0.8556542732163821
3547 0.6365979465904974 -0.6821738572945413 2.586610097159578
3906 1.2437948456670067 0.48007451881337104 1.2575522224142652
3949 0.6982893285912369 2.768517816654201 -1.1435258486575939
3516 1.892923801765638 1.1613914477551563 0.9063140145932675
3551 0.5590524600690242 -0.0201816513204291 -0.8470611851944805
3953 -0.6528656707260008 0.41608971289135044 -0.541348806160983
3910 -0.09850288048109633 -1.8347230545425168 -0.985632319838126
3555 -1.6068144043678265 0.6372128943298692 0.8810825765858886
3914 -0.22255226413552867 0.32281728420612515 -0.3930500999651102
3520 0.6325356043071161 1.0513736233193842 -1.0957607899124842
3957 1.654879509445806 -0.15524879706605738 -0.5388381034614839
3484 2.4029238317299892 1.5811188571921182 1.1772930810435045
3559 -0.4445771103885343 0.3895277222349528 0.6000156917637612
3918 -0.2783731041011072 -0.15322842194608272 -0.7453237342736964
3922 -0.6599760274873809 -3.236924089177277 -2.4645313282869052
3563 2.3596771186138534 0.8826317681554853 0.4415427003835226
3528 -0.5951722614277655 0.18904018858911384 -0.36920922927132754
3524 1.556016879570342 -0.0424639512982701 0.03679504650432708
3567 0.14491087545605072 -0.5315101362177305 -0.31369381095795407
3926 -0.582991497398077 -1.5251587413465462 -0.2612976497596127
3532 -0.7886146064604207 -0.7882551905148466 -0.752714691798854
3571 1.3370968770083635 -0.11989866147627881 -1.2176109760777818
3969 0.9525259424761199 0.7912711673280586 -1.0338676844400996
3930 0.12691529076646363 -1.0480404911737145 -0.0025228213564255767
3536 -0.17120281531928064 0.5588950403262545 0.7866500410326568
3575 0.4859750730800691 -0.7076146905025955 -0.2176172963552404
3934 0.8940902575434355 -0.11226419260755202 -0.016920877577912725
3973 -1.2312064764763855 -0.5054677396985531 0.5019914059653539
3540 1.0449831305487276 -0.4529847107935367 0.18978280184294039
3579 0.06083445404159367 0.4471818235646212 -0.8766064906944365
3938 0.4823196568473113 1.5778122051790289 0.17226742308821663
3977 1.6357916415706588 -1.619429302125987 1.4436304291572502
3544 0.8047806656034124 -1.136420643813401 1.909363917570798
3981 -0.9124443536197223 1.3936242661015175 -0.521975350148828
3942 -0.8504955358937866 -1.4931072679891884 0.5699583854050962
3583 0.17317731611963014 0.9259801302467 -0.2864122063200592
3548 -0.5898442749818873 0.3267160496501862 0.0574536758839982
3985 0.5511739325698588 -0.10789663329062833 0.27406192221246334
3552 1.7690450527314974 -0.517675163716813 -1.4986819895147188
3946 -0.6503031909540706 0.05807339030268673 -1.0219319335096322
3989 0.2769812561708516 0.3458576607602116 -0.02647444166774517
3587 -2.5422030383901144 0.3256195160842334 -0.3881680306113127
3556 -0.0017993999164747294 0.15722857246300548 0.3198401157444362
3591 -0.8226419119008682 -0.6904727091331458 0.27051307581469186
3950 0.9204101026288929 -2.0853144580424385 1.3591380509206525
3993 -0.6600920624697096 -0.2753703944444864 -1.7401419580213071
3954 -1.199928848516653 -0.13633781031490447 0.455455136155419
3595 -0.829192319566976 -0.5942623917834845 -0.1968687373911336
3997 0.1334975301166489 1.4655514038892743 0.17058181663062416
3560 -1.2943206044405522 1.0304322238613268 -0.8348147511912394
3599 0.5505112036942257 0.9219916717752404 1.1109063408360496
3958 -0.39229586898976454 0.20406768033197165 2.1131986975761428
3601 -1.1324411983213905 -0.4388876954875248 -1.0821496735147464
3962 1.3627472980009923 -1.1218557353950256 0.027932411082583073
3564 0.4188539747095735 0.9097581810698323 1.6777134896197872
3207 -0.11612723020080473 0.8891585653458066 -1.1286849595284518
3568 -0.6804813923647219 1.6021897742476097 0.6122933274866723
3609 -0.5734566486764349 -1.7731403089612912 -0.9600446974615819
3572 0.057775967397026104 0.6355794052638606 0.8634872318878819
3970 0.08828958359275675 -1.4207878465440598 -0.13816118075041778
3613 0.33194575836093887 -0.9691552190218097 -1.41310688873013
3576 1.6030196996724415 -1.2985783459857736 -0.28815464965726456
3974 -0.1642828604990206 -1.2169524792641546 0.30383054541587634
3580 -0.13242582158829638 1.2311110997705574 0.43403381368741745
3978 -0.2836814232538663 0.6804031237141487 0.2644316218690054
3584 -1.5367679114773873 0.45109877411372545 -0.7424455920438207
3982 0.2689584742667961 0.022563121753443247 0.8620786023106366
3588 2.2447274301365896 -0.6457757391332932 -0.2973357159487296
3625 0.22004406018686512 -0.49359531743926444 -0.9238960239621372
3227 0.49754034321686275 -0.8316013076498558 0.4750116301945384
3592 0.2474926237815617 0.27988196808614557 -0.960348371658943
3986 0.1835793889125892 -0.931666805290622 0.11047645999732404
3633 1.5136524280752164 1.3903973133680252 0.18643754555243044
3231 -0.8402215019035556 -0.09347281357592149 1.7713332089707365
3596 -0.009944407776140555 -0.924139825076464 1.1327355442599343
3990 1.5377213108722267 0.8886213219774077 -1.0904615937271986
3235 0.5334988736504568 -1.087972546796243 -0.562536441121966
3600 -1.6099093697561602 0.6868370726490662 0.03312064480596371
3994 0.3972235350014895 0.09029164375476682 0.030461336948071318
3239 0.06410653679531678 -0.4842406418047191 -0.2542978631791961
3604 -0.5093208581198323 -0.6562461075852729 0.6336039475487419
3603 0.6341072169242278 -1.821948156382053 -0.1451802587729334
3608 -0.08339805061364385 -0.30720311967510905 0.5230828210019663
5 -1.622051602557329 1.1416519534411644 -0.4732088211943149
3607 -1.849686363210258 -1.0165411803465727 1.2152508739117285
3612 -1.0215363511815199 1.0301656272817437 0.8599035312289351
3616 0.3879454849515714 1.446438577778607 0.5659347295609205
3615 1.2279850082156278 0.7225392610374819 1.20322956852119
3617 -0.18535631979062422 -0.2758984190269216 0.12540562107072675
3620 -0.6178863000542343 1.2098866771359444 -0.8414823873050131
18 -1.287377639352344 0.6138856139688414 -0.7545262310558505
3624 -0.5639172873762419 1.2826014808150634 -0.047313943447261524
22 -0.2881684036552902 0.018127186495581166 -1.5646002081591837
3628 1.2109642400046576 -0.15647576367519495 0.6593880024135877
3632 -0.5312630476353879 -0.02328082185504293 1.18468643305594
3636 -0.5209161490795042 0.02745897098327607 -0.31304631678198125
34 0.7261484953861874 -0.846017888500388 -0.37541130536416145
3640 -0.16617706965719398 -0.8078804707668829 -0.778413625111866
3639 0.6430468606639378 0.013356954977267193 1.2541423987619034
42 1.0978068850563867 -0.7865953998216977 0.07771585298566804
3643 0.762793209480107 2.836958797365634 1.145495794288774
3644 1.0980037024244738 0.7922222614993468 0.01914703653736128
3647 -1.3492540737238032 0.34969516766113495 -0.0941039236399551
3648 1.2634308216535992 0.8330884081145026 0.8538260078492006
3651 0.35677255668005714 0.5204578694216093 -1.3988362304624795
3652 0.6126238097403276 -1.2851308517344964 -0.41061590881628407
53 1.4787071500177795 0.2491186207347615 2.2966243868566676
3653 0.6434881523871542 -0.0235659721795971 0.06316675364354028
3655 0.048814277599208755 0.3854760880651962 0.6725109216130446
3656 -0.3068279701332555 0.3629241168406484 -0.9739881049617191
57 -1.3805129069303286 -0.968495404068372 0.6882459411487921
3660 0.21761680787131377 0.23935193183336662 0.5396349734665666
3659 0.6739833986345253 0.6045025302123778 -0.23384556420704125
58 0.8493815013545459 -0.9169507361614619 0.43584503290148296
61 0.95053961999603 -0.011754473249946211 1.0950702463290727
3664 1.4879792841505028 0.16193674620458984 -0.2823931353954342
3663 -1.9870596349009795 -0.9907649293285911 -0.1924409037459111
3668 -0.0289722731212976 0.03870629201347357 1.028608949328253
3667 0.4282426723515257 0.22599080204272382 0.34782288733804706
3672 -0.3099193361706766 2.5160298874243394 0.7137295172325168
73 0.06771039282931753 0.5034712922202468 -0.1154882287588396
3671 0.2791133053674122 -0.09938953136256601 0.2316482383837388
3676 0.3276469427150305 -1.0037345705009995 0.7443549870244142
3675 1.1319890818941079 -0.6697287626172992 1.148674684280453
3680 0.27882084990257383 -0.2010570383975365 0.4583775433113285
3679 -0.7117627390375605 -0.5236116872171797 1.3114888870343202
3683 0.6577153160885774 1.1830562238200373 0.6672164511488063
81 0.6993718617409481 -0.10606552088206656 -1.1669906974732325
3688 -1.6060435161569198 2.123878933311012 -0.1818541649162167
3687 -0.646263609448673 -1.1077772056640585 1.4618562614035477
3691 0.5763012646687447 -0.07947508577113796 0.36490082805416774
3692 0.6047795632468044 0.031296227686620874 0.4791053808981063
3696 1.2035953468404552 -1.0076957512167306 -0.7064491939701096
3695 -1.872631370781768 0.15029423969625458 0.6335726268069783
3700 1.1162890494781106 -0.8768297454715838 1.562857062085036
3699 1.4877762980819016 0.5607140639360174 -1.3382626439582013
3704 -1.780786687358059 -1.3378988793313438 -0.5939708386770829
3703 0.9516580138312042 2.058130797606651 -1.0000654038700403
3708 1.2219437687187051 0.36927457447119305 -0.3286015353519507
106 -1.9793760262196571 -0.2719500078509794 -0.25999059521882073
109 1.4822851669253785 0.2180735605507084 -0.08418101066865238
3707 -0.472201341481655 1.0580545508393295 0.5355536480594304
3712 -0.8341106960392166 -0.6758328541303283 -0.2634728357870043
113 0.17432744305707265 -0.5079025532968671 0.7941934091602374
110 0.2270515335330155 1.1341332378326323 -0.9983413311747875
3711 -0.2399608963605104 -0.7926527482946951 0.6392025383237426
3716 -0.1947505843591765 -0.9015749386633779 -1.2254916890573595
117 0.4750435905864047 -0.480073214791143 -0.4234703409930863
3715 -0.2801179143457164 -1.5454154187386555 1.0615636949595841
3720 0.3925763744710181 0.3294304458395288 -0.2539707589828944
3684 -1.3395973920781434 0.3413574616477801 -1.4041372449163871
3719 -0.5411992789716491 1.7445859361124973 0.3515137097816642
3722 1.1838117094206957 0.8738667435675981 -0.6851515770663041
3723 0.4190955231331912 -0.3731499684493757 -0.27640087998809587
3728 -0.8060368711306959 -0.014362950673184022 0.9133412050945933
3727 -1.290593507045939 0.9166830789830824 -0.8620998199662903
130 2.6431930814658444 -0.19399152303650208 0.6223691547277218
3731 -0.19474801184871585 0.5709008214274015 1.2999323807927563
3732 -0.15356193890406575 0.8844924128390573 -1.1102568988735604
3735 0.898023900931622 2.1582772288080414 0.587742998074789
3736 -3.809932588479696 -0.11491281599940377 0.7961295261899001
137 -1.0822236588532002 -1.0236119025707997 -0.40750194511655735
3740 0.9946583740006597 0.8741456262478308 0.6968854386457345
138 -1.4418570738080392 -0.05354781960044915 1.4533325489252786
3739 0.2412286637033823 0.9639510674123843 -0.9969331471184517
3744 0.34921404420801117 0.3892153680954349 -1.2896140763575816
142 -0.4865595353078114 1.1908704264758831 -0.3304520090138652
145 0.46968815408179976 1.1335839582719431 -0.3398275943794054
3743 1.3533442019782607 1.0055926672084088 0.023303981086570825
3748 1.1700311744627394 -0.9112985953071505 -0.8360461736911842
149 1.7461704071047583 0.16019935497937357 1.0571613414974317
146 0.12355961119702795 -0.7535178432327594 -0.2959582928427004
3747 1.9107697421351237 -0.21413009190646157 1.810242576154666
3752 -0.5315099488226864 -0.2546134151801439 -0.9465650439755349
153 -0.08501950265713366 0.32062596425200507 0.5971013409695113
150 0.222067671413156 -0.2608097763359024 2.0291252042130035
3751 0.21844518470445418 1.350178411168888 -0.0012504749922983643
3756 0.017821449809679035 -0.9313271850800453 -0.5121018180512888
157 -0.6248074593214279 -0.708321018219503 -1.0226089659481314
3755 0.0006237325344217918 -0.10563731597208484 0.9304017392692193
3760 1.807815079342888 1.5261922676847528 -0.5660549999051516
3724 -0.6197069810065653 1.3030703431727073 0.4695652256626887
3759 -0.22459474087566705 -0.26768741690720754 0.6126907328205404
3763 -0.018108153162752296 0.07220616402847445 -0.41426306326072765
165 1.2241740580841372 0.27954578077914455 0.28222547890573696
166 -1.0488364874312717 0.17008890628046042 -1.1354992797352212
3767 0.7079024205748595 0.41231019761442517 1.1590221670999534
169 -2.2116066735365996 -0.6726138689572145 1.1389181992229762
3771 0.31112911037236235 0.045495817236349385 -0.878349069377513
3772 -1.3429996448773673 0.49020957134658943 1.0671100117518928
173 1.5455982218519955 0.4429418763707963 0.009097969692755547
3775 0.6898567899610174 1.2635101052380409 -0.9649048071267539
3776 0.1900349009048619 -0.5317921821051048 2.5854994043490196
178 1.1006829368919602 -0.8302520842071598 -0.2793525349592453
177 1.4669190285057967 1.4299126609390684 -0.7711647948573984
3780 -0.13132313348448255 -1.7085661946998332 0.2977869948725307
3779 -0.8161915384463859 0.7655977011760308 -0.015212033264082714
181 -0.143400848814875 0.813849634499029 0.13355382689786874
3784 -0.595675832913579 -0.9244484960169299 -1.2320864953623731
182 0.48930419784407436 0.6086282846150349 0.0261282478289402
3783 1.15756771107086 0.6755834527050141 1.7170879334581266
3788 -0.36056798728947387 -0.8171755246463454 1.161830422884516
189 1.6902084371535044 -0.7442217351746686 -1.7762649794361591
3787 1.022981384293101 -1.051507065626874 0.6480586221596922
3792 0.5369339144768468 -0.3049419490498866 0.6383507834199963
3791 -1.5878674746858934 1.1188301898466093 -1.1159952754398779
3796 0.1281515677822507 1.2047107509388133 0.42867286784380304
3797 0.8066289784007973 0.45713357071093774 0.19840247542998202
3795 -1.6653486552308419 -0.7475544093302827 1.9082558149576325
3800 0.8445830203174547 -1.4633853337832112 -0.30983508615240846
3799 -1.7668761248073703 -0.18415864554059502 0.5781204785155629
3803 0.2264646850622444 0.033468939155874546 0.23147165922627438
3768 -0.1496297973869268 0.06628293177829689 -1.3029299907941034
3807 -0.40346326859700676 0.30434267005492616 2.194992259934468
3811 0.30348473523346914 -1.9504412676839 -0.08637387753510624
3812 -0.5723711122176095 -2.113661234276879 0.26233095746447455
174 -0.6842797787168151 0.014250768430073677 -0.2088506920982716
3815 -1.7389806048642236 -0.807652118087759 -0.4777746087372801
3819 -0.37445054710410897 0.14563411891649689 0.7750326228578683
221 0.13713397385309853 0.07926992385009726 0.28327896900883215
225 1.1564792957657404 -0.7285538298076426 0.8434109723312146
3823 0.44790417493709506 -0.8698329872817607 -0.7502215328862761
226 0.8777284942473182 0.6028662848843683 0.062040914368652035
3827 -1.141582309970706 0.1806113604879143 0.3686065747168235
3832 3.119608230462643 1.4010999122949568 0.7312084483617944
3831 0.0588187988614314 0.834799514401579 1.6466048092804093
3836 -0.10028965590118841 -1.4415617736695245 -1.1469990670796735
3835 -0.3316580321829473 1.0027506442741219 1.532050011806172
198 0.2896854600383497 -0.42030200679490204 0.43899234307224333
3764 -0.8275939960032632 -0.2135590090876222 0.27334083765895384
3839 0.03666320436726589 0.15745885595228376 -0.29829472064549956
3843 0.1375549518986358 0.4523308924345077 -0.16789072913488126
3804 1.494889508090823 1.608963879661115 1.2455279119328684
3808 -0.24786251870653786 1.653279143200223 -0.346362325892439
3847 -0.3110146513448841 0.6341497150788549 0.38339325293079224
249 0.5236763796106436 0.049950743139422854 0.1283364523346117
3851 -0.8622127657923744 -1.738866743213511 -0.13437639456705563
3816 0.06879926774099786 -1.6300113606444053 -0.32345735678625703
214 -0.5548181427504056 0.821904435393773 0.17803809249859945
3855 -0.7026856594591097 -0.01865045155288975 0.68746301861717
3820 1.0102220265122295 1.4287657772031024 0.6285535249174462
3859 1.435496174192251 -0.6961223532887778 0.5745144834731419
3824 -1.0452732296024756 1.5962515095260956 -1.4056572407668315
222 -1.3556004227674978 3.238095634661916 1.6366536261414717
3828 -0.8690420254753177 0.5852528915788056 -0.45786683310511694
265 -1.0717832062230837 -0.5511932267820191 -2.117378918595342
3863 -0.0825823022995834 -0.3258126536235771 0.3314965096719669
269 1.2892128011974207 -1.9554257618057413 0.7774558821174526
3867 -1.2325831271265877 -0.21806514318741513 0.4999607084775854
273 -0.508928749319208 -1.718622117223348 -1.9128522454256496
230 -0.5828323143360985 0.9807344869707938 -0.9133337684998314
3871 -1.2965282255126678 1.3557619319445917 1.1592195351448424
277 1.1314544160431401 -1.507712213521825 0.4198735116878278
3840 0.8902158489006872 -1.0349918079169798 0.5456017394352912
3875 -0.8341254924895396 -0.7391859380770035 -1.2278706144857523
3879 -0.5663788952484841 2.6599653046790706 0.04381161795461612
3883 0.869316042259965 1.3822279780830669 0.11239944551796378
246 -0.1614571022312397 -1.9741828602847529 -0.26845760897293236
285 0.47440408452957195 0.19288771561628737 1.4767031750526491
3848 0.9741400895906674 1.9074336860370997 -0.39551794292419357
3887 1.884688047975883 -1.9057627860417716 -1.3957665860509778
250 1.1999463542089621 -0.9518625323968265 -0.2522522289246316
3852 -1.3498784772231895 0.05339581115951203 -2.088441237218991
3891 1.2552820873058448 0.24853290835507608 -0.5028151194884417
293 0.9951742233937044 0.2923519690169297 -0.17160202802625865
254 1.7773241343862718 -1.0368113845511981 -0.692444153760902
3856 -0.9780332186553827 -1.0033798680811612 0.6480330190188559
3895 -1.701021441377639 -0.13331190971184806 0.01868912305221034
3860 -0.7693685691354448 0.5993376732246063 0.0981759228039739
3899 -0.07403721473241945 1.0612146259857225 1.6860821228628504
3864 -0.6212611371697948 -0.686560439967038 -1.3806624358848278
305 -0.04829448363202371 1.0989357531745498 -1.5161326242838664
3903 -0.6251517250361006 -0.20571029844324146 -0.6831238309448647
3868 -1.1347955249399297 -1.1001277107594862 -0.3431105442243179
309 0.8877955694988621 1.1058291739772033 2.0737251250310753
266 0.5490114623112142 -0.26585759366674006 0.22500800266904147
3872 1.0842026910146685 -0.6495080481374693 -1.060605611589766
3907 -1.2949101324658006 -2.9950427254482244 -0.4335296806393896
313 1.1448932858091314 -1.2779289153266582 -0.6938430924704486
270 0.8735291623797902 1.6686986355594025 0.18559202133937636
3876 0.39833757331792496 0.6936754164096987 1.6546923582477049
3911 0.4556109491533179 -0.8697247288212394 0.25750302219325205
274 -0.6649727792416278 0.18700604901223708 -0.736424740616576
317 0.36381466971500837 -1.2930017958808824 -1.1538320234105277
3915 -0.7970025479448752 1.2064658915340385 0.7004620469832091
3880 -0.7504420019124421 0.30964103671731735 -1.1897237743101843
3844 0.7656402810731041 0.31624487044058314 -0.4909550859711338
3919 -1.4487279638641886 0.9529285307842774 0.37535043650334515
282 -0.8583168625018678 0.2905035789036697 -0.4270072797478718
3923 -0.39073250927445125 -0.8400589666863082 -0.3281039292368325
286 0.9761504202839814 -0.8572459095877855 -0.7492054945769755
325 -0.6808588606857662 1.2822987444001415 0.6400750868812101
3888 0.29584908026524104 -0.09509825864985319 0.5302274861564901
3927 -0.9842927516626644 0.11265550222014745 0.3394340494609485
329 0.2082388084482077 -0.3752760579117242 -1.2900374495012699
3892 -0.6335945916757525 -1.1398219755136327 0.28588792676795677
3931 -0.8795203355559212 0.6525800957404018 1.826669014235369
333 1.1966131385564769 0.6494979343653733 0.3132518992166057
294 -0.9082105168644633 -0.3723940383717978 1.2957094780634675
3896 0.4419860166916822 -0.9948514629492722 -1.6216162533368474
3935 0.8646511731161469 3.0241158595319537 -0.6052905777149684
298 -2.897944888036622 -0.7723164433251521 -0.501178039361731
337 1.257194378129582 -0.167999797247502 -0.4985858453477724
3900 0.22447416236105194 1.2873353422676252 0.3877585265996454
3939 0.30116307017351956 -0.615373816611552 -0.42667335545050866
341 0.8677425341856119 -0.9538996396979539 0.3884476229905035
3904 -1.6906020119499583 -0.10667638468140707 -0.2781224325628918
3943 -0.09473219932515459 0.10095502437531967 0.8240722424386161
345 0.3775133590102537 0.7514914088308244 0.2739942927653139
3908 -1.8090155849725604 0.15804719415426616 1.4992739114862026
306 0.3470372181712071 0.07894167344914313 0.6981887779583948
349 0.9875923405241815 0.5413203065303349 0.5862749738735088
3947 -0.039475853446592185 0.6444143058759009 0.3996301243559845
3912 -0.5861232818352173 -1.2275171474003785 0.2714343957556667
353 -0.5573695644784471 0.0718304230684328 2.2107358312501475
310 0.5594880806053201 0.11360420192778987 -1.580855884236757
3916 1.3367432835315278 0.4589817565467794 0.09450957870198362
3951 0.778129480712408 0.4901244822729721 -0.2524220585719108
3955 2.559385466394546 1.7881711762492905 2.650427641103986
3920 1.050307022705486 0.5600660924152037 0.28061868746369567
3884 -1.2180321466510735 -2.4026172291670207 -0.02179055761444904
318 1.353572115961307 -0.11408073172968002 -1.8046515826025873
3959 0.7899050611361264 0.6065212849368216 -0.6139010240101055
3961 -0.6652444582689958 -0.3290522068706637 0.9806765077392362
3963 0.6200410759744244 0.25219996772953557 0.7928171979924221
3924 -0.512123884466126 -1.0944899210379362 0.28092663837824655
3965 0.44657422630810334 -1.9013287436635407 -0.23641072315848696
365 -1.7097389159828094 1.7063974839857186 0.8990157204005045
3928 0.1915290865373403 0.2999356268574482 0.003657135507005254
3967 0.900064434289419 0.7505886326755841 0.3671585713851208
3932 0.7498173459905829 0.5047541056262763 -1.0540715011152457
3971 -0.26473536684610555 1.8373060253522795 -0.1537147133421617
373 -0.11981444849581271 -0.10835295003411238 1.1970736962542492
3936 -1.0237076329347163 1.8941181173340795 0.06147221616908294
3975 -0.22032926228742758 -1.9439455134357257 0.4817611343844966
377 0.5433756771292232 0.9591997154000665 0.4308759940565833
3940 0.37074853281914455 0.13356537791069897 -1.287213341666631
3979 0.02293625703971072 0.9802208171659955 0.6128698527317715
3944 0.9964872290534267 0.9744913594161545 0.14994838841822006
342 -0.6305679499912707 -0.2872763904920578 0.047843968199111936
3983 -0.46527139344236335 0.34946817879432374 0.4809623657613331
3948 0.7168006974707593 0.14095365603323098 -0.9216198806406339
346 -0.16610740360234794 0.4433225721226875 -0.7441667760540959
3952 0.3926692444574461 -0.4634301360714318 -0.17615062052296165
3987 -0.6165442178015288 -0.40862583918860895 -0.4812970032294228
3956 0.448226911378155 0.018676877805556092 0.86992183347199
3991 0.3009654359272204 0.5576717269278573 0.9345353155900074
3960 -0.3689321388488453 -0.5717592404445915 -1.5201637462965039
3995 -0.6743770751148227 -0.4809189067221018 -0.8898455518399211
358 0.3546167705106214 -0.5771732943778662 0.8384343780533199
3999 0.6676884896018507 -1.299746492418214 0.07841961324920894
3964 -0.559469808583545 -0.9254183984466294 1.1333410719766843
3966 -2.1126754325555823 -0.684291603440217 -0.9617871767520426
3968 -1.5539334039830668 -1.1790857169161066 -0.8826802709033272
3611 0.1618911234555393 0.7539043703850133 0.5795524484968714
3972 1.656362945264608 0.6555622621422104 2.044474889462055
374 1.1286680976228314 -0.6963702117181702 -0.9028277535173733
3976 -0.30228620091015046 0.8688488585247077 -1.0291892848802426
17 1.570831997051072 0.30956991895524033 0.5881548830027503
3619 -0.24125395628035803 -0.17965918216922042 0.4250134089099492
3980 -1.5654020685875492 -0.034133302194879124 -1.130061965419981
21 -0.2985282368485795 0.44745774210612255 0.17730442191601697
3984 -0.5215106344258141 0.8462743792472022 -1.5125247990727568
25 -0.7858895391287448 -0.13174748190561725 0.1614799276502038
382 0.4047229410668569 -0.48736616226490814 -0.9112836484512757
3623 0.7791591310185615 -0.6358031806419582 1.6918918246332169
3988 0.1885172790249648 0.7148958939736415 0.7637156282548518
3627 0.8190111791811455 0.7258592848253937 -1.1374587401966216
3992 0.5603773849166063 -0.8875244061387059 -1.4725736158547529
33 1.0661704365604014 0.14388189130135348 -1.4921343671448575
3631 1.9218941173395339 -1.4526268084170513 -1.1310786778400925
3996 -0.5550671599006497 1.0193428789428676 -0.8502686326497111
394 -0.3071201033656999 0.6256703691721114 0.193408007342034
3635 -0.49689292059232687 -0.38601821625266264 1.1931368950484105
4000 -1.0026433371726593 0.9212612989199531 0.1257558587123507
398 0.42320558541050224 0.32945733231613267 -0.021602049009342757
3998 -1.6931196221760747 -0.981959330327636 0.18137428417742033
