LAMMPS data file via write_data, version 7 Feb 2024, timestep = 1200000, units = lj

4000 atoms
1 atom types

-1.3013870761358994 16.23940289799287 xlo xhi
-1.3013870761358994 16.23940289799287 ylo yhi
-1.3013870761358994 16.23940289799287 zlo zhi

Masses

1 1

Pair Coeffs # lj/cut

1 1 1

Atoms # atomic

684 1 15.797422025827366 -0.2599516420205663 15.800928006472066 0 0 1
3440 1 -0.273145636551253 0.16067329262258623 -1.2087395908312784 -1 1 2
2957 1 -1.1203586604860292 -1.2902292657147634 -0.43597716974256895 1 0 1
1835 1 1.7974313013423089 15.90269347430392 15.874167646872756 0 0 -2
2424 1 0.9062727647277664 -1.2480255602817178 0.2711038948829063 0 -1 2
297 1 2.209667079598667 16.189306140404177 -0.6211580447016286 1 -1 1
952 1 0.8442982664095591 16.217354725267082 15.413061955103615 0 0 -1
582 1 1.2719855835247764 15.223775963180298 0.15003946977263505 0 -1 0
2808 1 2.8736055575532733 15.83323966614287 15.248085536511745 -1 0 0
3730 1 5.828006677375692 15.85796256851464 16.174912392690242 0 0 0
1035 1 3.453133244534347 -1.050039059283201 16.221984269521982 0 0 -1
3302 1 3.1650610267824524 -1.046601899549797 -0.13246598794161946 1 1 1
436 1 3.7266610238175444 0.03428879718191169 -0.35353574385042963 0 0 -1
1633 1 4.750105293671363 -0.3568986611433298 0.42078576726405736 0 1 0
111 1 5.237637762275472 -0.4794097623267135 -0.8927907964429592 0 -1 -1
1144 1 7.009111797004907 -0.6886586563567763 15.046482323366458 1 0 -2
2586 1 4.947911572644263 0.6321614219950475 -0.3549975503374493 2 1 1
178 1 6.250998568640375 -0.6158801904359175 15.78285994250502 -1 0 -2
3305 1 6.679172503875688 -0.018053657489124353 -0.0644055588010799 -1 1 1
2695 1 6.913272282720573 1.3732579898542738 -1.1408574693149378 0 0 0
2575 1 7.934697495475175 0.9850525703292186 15.215382855963927 1 1 -1
3470 1 9.469615215894274 -0.5840625299769099 -1.0912685136141291 0 0 0
561 1 9.814286052520497 0.22687904735966558 15.404594331531221 0 1 -1
865 1 10.656849997593197 -0.2785550500550549 16.205771835529024 1 0 -1
2565 1 9.368236325217083 0.6309902797020124 -1.0598371800865092 -2 0 1
1319 1 12.2480075723992 16.024302122568077 15.82885512744027 0 -1 0
3275 1 11.326462774161978 0.17415281274895844 -0.27215475815587364 0 1 1
3919 1 13.379450262112472 -0.8792892276898154 0.4427034096068083 -1 0 1
2650 1 13.234925806223771 -0.3640333817858735 14.391088452593886 -1 1 0
543 1 15.66055459986773 0.9234576994810673 -1.0660745099953803 -1 1 0
1345 1 14.27586876656277 -1.2388962680251019 0.019774838553970664 0 1 0
3981 1 15.747879264402645 -0.35494249448754533 -0.5316060269569994 -1 0 1
135 1 15.84572738314257 1.9116236216697895 16.207811942174423 -1 0 0
474 1 15.9516854227159 2.0940022408798042 -0.14083912999159343 0 0 -1
2556 1 15.528928257896823 0.28430588582191496 0.37579025599825466 0 1 0
3335 1 -0.3548823919414513 1.8376103431984259 0.5095533666366776 0 -1 0
1177 1 -0.41603504668758495 -0.021099273960276 -0.22640394418969545 0 1 1
2907 1 0.6760026278476265 0.5534931070071867 0.1785805109379497 0 -1 0
422 1 0.7578003602091985 -0.5945152797603455 -0.7594289350990586 0 0 0
1022 1 2.965588978941571 0.6779207925464592 -0.2596440092244714 0 -1 2
226 1 2.240535306418699 -0.7476393068897205 15.634091931519269 0 0 0
712 1 3.146124956571281 0.6292215046126475 16.094928834249988 1 1 0
3415 1 4.462609594056991 -0.36150613314658897 15.891320798052636 -1 0 0
401 1 2.326664967841569 1.0078561706569218 1.3909199079006975 1 0 2
377 1 5.221239487582631 0.6152259492520802 16.169006098102997 0 1 0
3494 1 5.174119481418063 1.775559146116069 -0.8711579806577305 -1 1 1
473 1 6.364931413734392 2.186010842901408 -0.6503822712467849 1 1 0
516 1 5.40078703125637 3.9419847769860716 0.8614352665536127 -1 1 0
1422 1 7.905313737021933 1.278445677222476 -0.7949765769229754 0 0 0
2498 1 5.915839442282636 1.1468778855101625 -0.5349891538169476 2 1 1
1650 1 8.90514582839957 1.5438193731430943 -0.6805258568107599 -1 -1 -1
919 1 9.203414224140513 2.4245805423641134 -0.2718216914876519 0 0 1
3663 1 11.664302043866968 1.7439161538821861 0.16692685089193238 -1 -1 2
757 1 10.330130010396294 0.8452031307868197 -1.1716254782026079 0 1 0
531 1 11.961324440637208 0.022016699876996837 13.696075895974559 1 0 -1
122 1 13.91492253085627 0.271256468894135 -1.245172912644081 1 0 0
2080 1 12.298705857722018 2.627145097199967 15.527052091957877 0 1 0
838 1 12.652226770816855 -0.09228392713115041 0.3475211193718062 0 0 -1
1064 1 14.019205250960816 -0.6731394407946324 15.162780400590847 0 1 -2
2599 1 12.250570972407305 0.3523499781412256 -1.0425691407027327 -1 0 0
2999 1 15.56969659200421 1.2693688167714785 15.416261091575521 -1 1 -2
3944 1 14.775370691901227 -0.2019595603781945 -0.3826990668734036 -1 1 0
2374 1 0.6567890165162069 0.5985791512532297 -0.9703993744488077 0 0 1
541 1 -0.6620297576913909 2.181971434506027 -1.0547520984411087 1 0 0
298 1 2.107844857595058 1.203311480224714 -0.0015384056997163054 1 0 0
292 1 0.6656422493764536 1.538831152384188 16.1090155041859 1 0 0
2666 1 3.3615628774168016 1.993406157478256 15.798725824962816 1 2 -1
3932 1 1.2576530005550928 2.3403968791774368 -0.09188039605275389 0 1 0
3041 1 6.240762865467388 3.382070917074249 0.5588467801892298 -1 -1 0
1336 1 7.971055001452058 1.4980582069708093 0.3073263959782164 1 0 -1
3135 1 5.495151810330663 2.4766733019633667 16.146095276822052 0 1 0
695 1 7.426266428816824 5.308265580770451 0.005820418488772239 0 0 0
884 1 8.296179852385759 4.126380322448506 -0.13180350097803806 -1 0 0
460 1 9.318080940201366 1.6180220150157352 0.7842285838156005 0 0 0
1735 1 10.446912050407613 2.1125826549890285 0.2147633545655958 0 -1 1
3892 1 10.408616898452578 3.312032593383721 0.36141165089379057 -1 0 1
2641 1 10.778078614335728 0.9484247897838167 0.13908588594625027 0 0 0
3472 1 12.44881301871266 1.6498202033484932 -1.1187911445063103 1 1 1
1267 1 12.372429881954218 2.7988094818378553 0.6113337378989374 0 1 0
3778 1 13.224008633074844 3.033860517975178 0.15863123200977647 -1 0 0
3436 1 14.232279052996532 2.3363290306927613 14.927448295266718 -1 1 0
1396 1 13.478872388642285 3.3903033849228716 15.685863393421407 0 1 -1
1058 1 13.743975875176286 0.10148499723211724 -0.03495535576171105 0 1 0
1592 1 12.294202426807441 0.9109751527169161 0.4836914294801653 1 1 1
3812 1 13.769716740072745 2.2132494437059447 16.18341936957417 -1 0 0
3588 1 14.09814739031897 1.2704930487690032 15.766050213874529 2 -1 0
3178 1 15.120894874234942 1.7704258678632296 0.34449800118147045 0 1 0
2221 1 -0.7240908302632216 4.770273659930594 15.671445034591436 2 0 -1
759 1 1.5485592540176847 4.0169313639243125 -0.820467434386588 1 1 -1
710 1 2.2626676769229697 3.146636134406779 -1.192828118476749 0 -1 1
3927 1 1.0775818030731315 3.132604640678677 -1.1127402837917648 0 1 1
629 1 1.8409623946949218 4.231757070636906 0.6265801799050574 1 2 0
3657 1 2.474973902169959 3.992816529858005 -0.40131103353281317 0 -1 1
3397 1 2.310711979509052 5.712306707758857 16.103265672722994 1 1 0
1168 1 3.525352851779112 4.944928833665633 -0.45136594914156747 0 0 0
1514 1 3.3045040955202287 4.200355779994215 16.118288515924135 0 0 -1
134 1 3.1072406966322967 3.1354854115297295 -0.7956907993636201 0 0 -1
785 1 4.6605370857965065 3.9549192139369147 16.085565060623864 1 1 -2
1140 1 5.32360596096992 2.76312548734899 -0.23213945857168494 0 2 0
421 1 4.950071840612368 6.0109085588073174 -0.7945825523875574 -1 0 -1
1979 1 7.239348603339295 4.299538359349349 -0.6335374893790908 1 1 -1
3744 1 9.169983628671526 3.354492072020437 -0.9048925057786629 1 1 1
3567 1 7.166434627356564 2.773087702427972 1.1111864321537768 0 0 2
3475 1 10.320038416829059 4.100547389029277 0.906579182790209 1 0 1
1030 1 10.927658798667546 4.386810119721602 1.8180606843911358 1 3 0
450 1 9.033840360616399 3.3227697741625617 0.05522048837495919 0 0 0
2143 1 10.133859949304243 2.7813255649067363 -0.6696455180050027 0 0 0
454 1 11.556085608094158 3.3893597574288465 0.8842375668701572 -1 -1 0
1887 1 11.796242515132494 2.6613575847455864 -0.3954421874566151 0 0 0
1297 1 14.079772122982416 6.150895051636341 0.49239663321936145 -1 -1 0
317 1 15.832012484035829 5.487466292106806 0.4611620738504403 1 1 0
1019 1 13.932374851749511 3.566146887193244 -0.6140327215873415 0 -1 1
2926 1 16.038944990688602 3.8781901834986057 15.954324158515671 0 0 -1
1405 1 0.0024029606715121332 4.797497778548711 0.7270703228573261 1 0 1
1417 1 -0.4476849817689954 5.212152815511042 -0.21409188843610583 0 0 -1
355 1 0.14255094100835697 4.610759258104871 -0.7769687379511392 1 0 0
2259 1 0.7498999082943221 4.279591138065772 0.1994777708626141 0 0 1
878 1 -0.37554487773933287 7.488602626954069 -0.6844112566357021 1 -1 0
1736 1 1.9830096360903946 5.908192523322191 0.2620432391165928 0 0 1
3672 1 0.07340493679097015 3.4989329957394704 -0.22765997223544132 1 0 0
240 1 3.085187427601869 6.054718508613974 1.0968911127848209 1 0 0
3506 1 5.886804758897755 6.103481839785236 1.5802112980260121 -1 0 0
1128 1 3.705889779804494 7.043761682404341 -0.14521157297009601 0 0 -1
741 1 4.378544128685717 5.782238045739957 0.1765140363643205 -1 2 1
1324 1 4.635825583158034 7.888596399420836 -0.3681249328548284 0 0 0
2544 1 4.329182116927782 3.3310737322166553 0.09539906772254114 0 0 0
3191 1 5.604271052056336 4.9052027616895995 -0.7310536244985427 1 1 0
1124 1 5.046497872305083 5.401092602185881 1.500017378987336 0 0 0
3869 1 5.531303012243285 6.96930388057487 -0.5168944593100894 0 -1 1
1224 1 9.418725711508957 4.178041346597604 0.4626017370583124 0 0 1
2876 1 6.590802211804965 4.522596330137836 13.575421207862137 1 0 0
3004 1 8.508807216069275 5.753243961216143 1.3615433597548598 -1 1 1
709 1 6.540378813270486 6.070176561252346 0.6522209747018708 0 1 -1
2939 1 8.08481747473903 5.005129455360856 0.6937726182380448 0 0 0
314 1 9.479299410940042 5.247289148563013 0.797580920600458 0 0 0
1498 1 12.259201440933195 3.501331902634637 -0.15734806159724957 1 0 0
3698 1 8.260316444696539 5.932309326452753 0.3384793427790471 0 0 1
1816 1 10.00544340900831 4.004491286680966 -0.32517356446003287 -1 0 0
3204 1 13.118315763138432 6.262048480657675 0.12222466532098952 -1 0 2
2378 1 11.041524679878894 5.679754553392741 15.879217906416642 -1 0 0
745 1 12.82603987703493 4.230003458495534 -0.9029411777506429 0 0 0
1526 1 14.466125383266295 6.176776685579844 -0.4839323022732762 0 -1 1
397 1 12.83426228991525 6.59032691681749 -0.7910926229241887 -1 0 0
3796 1 14.816170186229698 4.008582750328095 -0.1579471219656008 0 -1 2
2835 1 14.965592349297719 4.908099257244764 0.5307675286954627 0 -1 2
2194 1 -0.6737517196035813 4.127719199583416 -0.4714916547853717 0 -1 0
2878 1 -0.873586415185464 6.9209531208661605 0.4129424234337078 2 -1 1
2037 1 -0.4727542307701834 5.8205173546531 16.029593425720723 0 -1 -1
3808 1 2.3108801576068756 5.270214952889826 -0.478565606024431 -1 1 1
1960 1 1.0976696564921364 7.091563053450882 -0.7472618512954452 0 -1 1
1323 1 1.6638611246912407 6.063035042176189 -0.8476398885612844 0 0 0
1934 1 0.6321995448477333 6.404297744567864 15.245889570305021 0 1 0
365 1 1.9650358935246963 7.018468045916748 16.15832943783566 0 0 -2
1731 1 3.091696387176281 5.914479421250651 -0.05175293666271452 1 0 1
2203 1 2.571289767233868 6.478927145691024 -0.7621281549892237 0 0 0
764 1 4.306419415538086 8.045134167628106 0.7935938398769578 0 0 0
2670 1 5.50686124365273 7.7064303394398745 0.5786498232240167 0 0 0
2596 1 7.1122416930747985 8.087716237968467 -1.300943432163526 0 -1 1
497 1 7.102715344053658 6.255682536964481 -0.29652665717995275 0 0 -1
3266 1 7.112515370382118 7.081988513857983 0.39843883208703 0 0 2
1515 1 7.527906653522967 7.396413789635574 1.370918315725778 0 -1 0
3764 1 8.67256626701595 8.117344275853618 15.643140517647055 -2 -1 0
3235 1 10.305678982861911 7.13429155863439 0.009668587125770456 0 -2 2
2590 1 11.075300684403238 7.224587898428419 -1.2277983511724107 1 0 -1
513 1 9.165407373353082 5.842278217059833 -0.19212652114832895 0 0 0
3047 1 12.336361632058832 7.680615373210079 -1.1110964194461563 -1 0 1
2766 1 13.475120983871381 5.726340932440022 1.8196742123797431 -1 0 0
839 1 14.439604058373536 7.409917968969454 -1.2209957901264112 1 0 1
245 1 14.079696255886114 7.137170157822299 -0.3488774597952278 0 0 0
880 1 15.250778368552226 5.44925053866784 -0.359138141740853 -1 -1 0
1664 1 15.87965631713492 5.862045392182627 15.568229795467872 -2 -1 0
3110 1 15.986086628609044 6.422166592021939 -0.12955215986818747 -1 0 1
1106 1 14.908866500936028 6.078875590319562 1.1759481820812452 0 0 0
235 1 15.034876716812303 7.660067080483239 -0.4905649203153689 0 1 0
60 1 1.4766798096650904 8.779883113609072 0.14768089562162112 0 0 0
959 1 0.417830753319554 6.095385233821148 -0.6213813287882367 1 0 0
1347 1 1.9037505486691102 8.008078390195067 -1.044117665929376 0 -1 2
3102 1 2.73664445124684 7.47484858492126 -0.6742559537823227 0 1 0
2849 1 2.497948132492835 8.7217302262571 0.87541675107359 1 -1 1
3233 1 3.7140984789111817 7.068328498251143 0.9256796073414799 1 -1 1
1930 1 3.165189278518244 7.9562106444357745 0.09913626051408686 1 1 0
3289 1 4.881018552063331 8.839239163202853 2.663438808313884 0 0 1
458 1 5.373896775825199 8.609757894014978 -0.6147517909580307 0 -1 1
3997 1 5.559746599178575 7.767911656938084 -1.1883447670472007 0 0 1
2204 1 6.47078569199494 8.114159021181312 -0.11894521763695387 0 0 1
2733 1 6.603178708583327 9.118842212351206 -0.10724890467021075 0 1 -1
1357 1 6.303737478887631 9.206099985747949 15.236158887710037 0 -1 -1
1395 1 8.80101323378212 7.605308769997928 -0.848523851775568 0 -1 0
2200 1 8.092333895597696 8.309106221471486 -0.8339859459679924 0 -1 1
3673 1 9.25593514105288 9.166410122483509 0.3843936020949448 0 0 0
2042 1 9.45465173394724 9.982837068549761 -0.2753899703080376 0 -1 0
1108 1 11.498658533568896 8.447414727061233 -0.22671351584860955 0 1 0
3960 1 9.55280640328997 6.811704450411964 -0.6334906415934043 1 0 1
2097 1 10.914584802684708 7.960953144403032 0.5603037129297241 0 -1 1
1294 1 12.547204126043065 8.692807850717989 0.05532837247146016 0 0 -1
567 1 13.055171778824704 7.41981786893413 0.19375715551947237 -1 -1 0
2095 1 12.98025986361073 9.519410148070813 -0.5487515498268621 1 0 1
1812 1 13.148446370568255 8.349285795352943 -0.6282219528079453 -1 1 1
1419 1 -0.9874441405327634 8.325700351591953 -0.8217415128704862 1 -1 0
3820 1 14.664494168895324 8.46424081321734 -1.2313703992099603 -1 -1 1
766 1 14.277330253478693 8.031826209712301 0.06500163063637654 -1 1 0
2307 1 -1.0662764229875084 6.757845082241019 15.988045758366184 1 1 -1
1189 1 -0.2948890710465448 8.684943501557356 16.08040596400103 1 2 0
2547 1 -0.27655430324511276 10.65198328660741 -1.162245263794772 0 -1 1
45 1 -0.8515977628557577 11.267945971876742 -0.7587793052065956 0 0 1
3654 1 1.433282099382902 9.764924970671558 -0.22480841423330644 1 0 1
1614 1 2.0303470258054546 9.046148840940205 -1.0248187058975593 0 0 1
3361 1 2.2887390395329175 8.246505812296025 -0.1333089710721982 0 0 0
598 1 3.635424220273064 9.54885976197901 -0.4729273520671513 0 0 0
2573 1 5.249284679759324 10.540747023012889 -0.009714055037634672 1 0 0
440 1 5.612224336121985 9.569836752698341 -0.2495078208552528 1 -2 0
653 1 7.435504206181866 8.88399983007885 15.284859092191514 0 0 -1
2252 1 4.606928839532082 10.53982318884608 -0.8868492189241788 0 0 0
2094 1 8.24543297799386 9.374721265420156 -0.37096645412771734 0 1 1
1328 1 9.901379111354405 8.515679226411244 15.636074699627663 -1 -1 -2
428 1 9.752023393343801 10.699689294673012 -1.0149504118731734 0 1 0
3229 1 10.770710611164468 9.2255763213564 15.846943104870462 0 1 0
3401 1 11.055605112821997 10.425633296720653 16.00778024443749 -1 0 0
1016 1 10.541443338735926 10.072478538321237 -0.5598487624594543 1 0 0
1228 1 12.776604876400203 10.515318613745352 0.0939345845265922 1 -1 1
988 1 12.222150180018357 9.699931404132343 0.27558939296509455 1 0 0
3500 1 13.56572466106026 9.152371888487789 0.9874724750892825 0 0 1
2092 1 15.232931626117264 8.692746562102254 -0.2556296718980138 -2 -1 0
357 1 13.9450919184054 9.393378670601729 -1.084056049370786 1 2 -1
1321 1 0.5362649738160239 7.864949989877193 16.210878961419336 0 -1 0
1387 1 0.8778904263357354 13.655495259460645 -0.9974463510506237 0 0 1
783 1 -0.7483565815140004 10.80511011876514 15.322317954157306 1 0 -2
3572 1 0.7166877890281835 10.562776413837804 -0.7489013936952857 0 0 0
2982 1 -0.34446291392534634 12.467576847667516 -0.7523753583365591 -1 0 0
1554 1 2.159773955211662 11.59477394376028 15.386051826322166 2 0 -1
518 1 1.0294404070863008 11.351626856631906 15.92115927196177 2 -1 0
3098 1 3.899371300905413 11.89001227972161 -0.4033435078255516 0 0 0
1481 1 3.717270880782749 10.85416183365909 -0.5681335697318693 -1 0 1
3537 1 2.67416221616721 12.43161219789416 -0.8557188850668244 0 0 1
32 1 4.671887953908452 11.440813763081522 0.403664981614982 1 0 0
3822 1 5.586554429679993 11.66553054197162 -0.2694856522070035 0 -1 2
66 1 7.562294004122592 11.321907345634862 0.20056904113063512 0 -2 0
2887 1 6.559440785879005 11.648339634892661 0.21908193640677087 0 -1 1
2213 1 7.115076261607214 10.166169586370922 16.174374313203682 0 -1 0
2491 1 8.579139301894052 10.106354034809996 0.25927219037375115 0 -1 1
3377 1 7.875656558077987 10.845890179487245 15.954534858229646 0 0 -1
575 1 7.948395807696203 12.979051690730293 -1.14711047624084 0 0 1
3959 1 10.537156221995053 12.291082643412324 -0.1497875872856791 1 0 0
2617 1 8.751697622857094 10.063515875302514 15.97114605280618 0 2 -1
2183 1 10.398991128254035 11.519952013473002 1.2838715289740348 1 -1 0
1566 1 9.579133184500753 10.706151985713674 15.400274454446603 -1 0 0
2127 1 11.51224605118845 12.197863374804706 -0.33385450963297714 0 -1 1
800 1 9.898306902776483 11.335352724523847 -0.25481634152008903 0 0 0
268 1 13.51099156965324 11.631655263839031 -0.6717560592872855 0 0 0
231 1 9.742645603451733 11.741976521342986 16.070445376288088 1 0 -1
3169 1 13.66659898538821 10.918726415958643 14.394260364409684 0 1 0
2961 1 13.952015974167502 10.782740084335504 -1.0567889191007003 0 -1 1
1273 1 12.889670954358198 10.918309110022443 16.178112718575893 0 0 -1
247 1 14.833553309376782 9.643585108155625 -0.622871659329651 -1 0 0
3270 1 -0.3219479372751688 10.893083451669668 0.16201761491934108 2 0 2
1115 1 0.5074214278928466 10.87977340201102 15.062077399201495 2 0 -2
3815 1 15.705212618465847 13.733305419165132 0.29192999864980695 -2 1 2
1263 1 -0.9384144430123974 14.107133324440161 -0.27396901362185555 0 0 -1
1326 1 -0.6303922834440119 11.326186689749676 1.1554213115538143 1 -1 1
1642 1 0.2068030525000879 11.52234417105823 -0.830855985723964 0 0 1
435 1 0.8751063564392316 13.2431844487342 0.026863355807214218 1 0 0
2247 1 1.5326389421162299 11.824653627794849 -0.43109879278847496 -1 0 1
2979 1 1.8329503297443464 13.019394664909118 -0.5348587632153723 -1 0 1
2995 1 4.732415667820201 13.465445736064357 0.120977246382727 0 0 0
3524 1 3.9005413137207174 12.366030894187277 16.173427852801346 1 0 0
1483 1 5.214855875563869 14.9716391214542 -1.0176055891805045 -1 0 1
2529 1 5.884082526972824 12.931913887497593 -0.1634954486092064 0 0 1
262 1 5.125609531729456 12.223593665515983 0.8531913727762466 0 -1 -2
521 1 8.305040440337109 12.440905360812845 0.09002949911708624 0 0 0
2545 1 7.322661844562868 12.218448493735373 -0.3674997440479466 0 -2 1
3763 1 7.717608839080885 13.517176826115238 15.300773263146695 0 -1 1
97 1 9.96330583899684 15.241172968932567 -0.11053888243947307 0 0 0
2631 1 10.002797361600868 13.658992457087773 -1.2492553840167857 0 -1 0
1433 1 9.358093955329549 12.3521028095108 -0.10737652296389566 0 -1 -1
1146 1 11.140287992535566 13.193249978477857 0.4015937655966475 2 2 -2
1684 1 13.717523388107937 12.765619706842388 -0.18633783088519196 -2 -1 0
863 1 11.574046209097741 14.058825241063586 0.19540724302952128 0 -1 0
2676 1 14.437046017572586 14.661865506573669 0.8997197111088444 -1 0 0
242 1 15.687583241865152 11.045156535133952 -0.6150872969564221 0 -1 0
672 1 14.052342986627835 15.352815733657533 0.18503990548342286 0 0 1
1340 1 15.156259400435076 11.994026784205353 0.2681598093219437 -1 -1 0
2429 1 -1.2920083474108306 12.9233424985692 -0.4188958460107681 1 -2 1
1709 1 -1.2094607182159525 15.0492179618821 -0.14971024914849385 1 0 2
2612 1 0.10847330018930101 14.205879762667207 -0.5206353908221134 0 -1 1
821 1 1.2094524335768435 12.895654583926026 15.170421337061576 0 -1 0
2051 1 0.9668088515074467 15.107338113612954 15.57128287429136 -2 0 -1
963 1 5.465023432156688 14.6654644941984 0.9468716301893427 0 -1 0
514 1 4.499944435415011 14.539178836060229 -0.23766013426855315 1 0 -1
3350 1 1.5399754649964286 11.745312645457481 14.365780448043822 0 0 0
2494 1 5.864897670941901 15.476967403125489 0.2622633301848383 0 -1 1
3789 1 4.773750612959042 14.801542255803625 14.112673481235815 0 0 -1
2886 1 4.183711185571937 -1.001229089043032 -0.4055762588718329 0 1 -1
2834 1 7.193521275952422 14.396925465900908 1.101260518121928 1 -1 1
2452 1 6.676261368291447 13.553612935054835 0.26973683839949625 0 0 0
3220 1 7.536997725020425 -0.3134846360384357 -1.024245347382521 -1 1 1
3115 1 7.948395459399713 13.573439492584262 0.3785631148695665 1 0 1
3017 1 9.404470747853846 14.264124911236118 15.400478083278507 1 -1 -1
2197 1 8.327561629862656 14.604236791125148 15.53093923657719 0 0 0
2160 1 7.137570571496468 13.95643319599579 -1.2821880706693989 1 -1 0
123 1 9.151173088344024 14.013153366500758 -0.331567911653298 0 0 -1
2098 1 10.729013350868678 13.24295050481591 -0.5852637283787964 0 0 0
1825 1 11.176600951410437 13.921354031907422 16.193066056649197 1 0 -1
1676 1 12.060162484538454 14.696459057804246 1.056133760297631 0 -1 1
2292 1 12.061039045683062 15.566041073747705 0.3196850907443638 -1 0 2
89 1 11.752054756400915 15.007702835187814 -1.2831393576846708 0 -1 -1
1645 1 13.646482848075536 13.771025317273036 0.541416089077249 0 0 1
1618 1 14.963194832347348 15.450100944283914 1.5531499295579452 0 0 1
1688 1 13.731254164037164 15.899287509639457 1.0543917853049671 -3 0 0
1238 1 -0.8660372328213005 12.642685956553324 0.7245651547294707 2 0 0
102 1 16.021258634459347 15.633091536159558 0.7796512237651108 1 -1 1
3546 1 -0.3383989189139085 15.646077248955425 -0.9772475213766743 1 1 0
3089 1 -0.14703114111078808 16.23225773922983 -0.08265162891182976 0 -1 0
2730 1 -0.9507541350277569 14.419300219926411 -1.224292971965176 1 0 2
2889 1 -1.018780591322522 16.138473341632803 15.639149460955974 0 -1 -1
3875 1 0.7156018624430787 15.758438757897835 -1.0254886418418176 1 1 1
2358 1 3.152669530358817 15.149539083882594 -0.431564055646252 1 0 0
1520 1 4.53683377920874 15.548242762731014 15.604989795232594 1 0 -2
2713 1 3.464997475007366 14.208946430980683 -0.05716195189987783 0 0 1
534 1 5.140810213214216 -1.1532969275847842 -0.11219070734368253 0 1 -1
778 1 7.031890228259215 15.761805723744615 -0.3968001337791831 1 -1 0
1671 1 8.920163665041365 -1.2454716938655928 15.632614568942188 1 0 0
2280 1 8.919828858370836 16.158455437489675 -0.4381045404352857 0 1 0
2966 1 8.819659897037363 -0.010982451348591882 1.0158833914453225 -1 1 0
1680 1 9.760681101523433 -1.147458227968704 0.15740778513619147 -1 -1 1
1132 1 7.596070164391568 14.972705835781309 -1.224173404549899 -2 -1 0
1538 1 9.916295447152313 16.01176516393873 -0.8423182622818328 0 -1 0
3207 1 10.677462338584943 15.39663203929765 -1.1651758964124115 0 0 1
2185 1 11.788599806895656 15.827039517677647 -0.6375386098830558 0 -1 0
752 1 13.637650728928941 14.182179893757088 -0.3851202444537456 1 -2 1
2148 1 13.058187578690656 14.681449316617261 16.11324087293508 0 -1 0
1737 1 13.707716420953352 -0.9348325719997297 -1.183881087768083 0 0 1
1303 1 12.804698239112486 -0.5668117126501154 -0.702419219511934 1 0 0
418 1 -1.0099156459297634 14.137446199956239 0.813351516954421 -1 -1 0
3014 1 14.58010127367762 -1.03890189586765 1.5378074750266149 -1 -1 -1
1652 1 15.037935076215188 15.88499885677491 0.5015119566810708 -1 -1 1
3857 1 15.228176262584451 14.570860294822296 0.21524719306041007 0 0 1
3366 1 1.3454196702159704 0.6151817551078531 1.9156607885021986 0 1 2
2077 1 -0.8838465123907503 0.2522186103795925 0.6386277225903383 1 1 1
249 1 15.82271391622211 14.67099444377263 1.3445501681975536 -1 -1 -1
1133 1 1.2445614276374246 -0.4358298650909075 2.1842375191102836 -1 0 0
1599 1 1.30701068411219 -0.28747418484333487 0.09344611476439857 1 1 0
1400 1 2.6693335796407833 -0.3297929892760697 -0.9795113490180817 1 0 0
793 1 2.746551156552795 -0.055760932454609335 0.3453738393757919 2 1 1
2220 1 3.7610815755341394 15.674445275027896 0.3418774468995416 -1 0 1
2179 1 5.709645585267178 -0.5565190212470056 1.1289494525182024 -1 1 1
3671 1 4.8961149146601555 15.767211474736921 0.7418375448640373 0 0 1
2227 1 7.832646335054848 -1.2130969059653056 -0.48065776482698486 0 1 1
15 1 5.7412331603904905 -0.08736866887357997 0.023449562241698807 0 1 0
2610 1 9.856411868199524 16.181482419962464 3.816324089134863 0 -1 -1
765 1 9.538222949280716 0.7106202591263315 1.2947002253465292 -1 0 1
3897 1 10.586025114855781 16.11041571323218 1.0138366491072408 -1 1 0
2682 1 8.84972566090684 -0.35439391257996444 -0.2851293675332349 1 0 0
1805 1 10.818903688857244 -1.2842795605933157 -0.6206476094078078 -1 0 1
2249 1 10.749228953439676 0.3064388483409306 1.1500592393086677 0 1 0
68 1 11.009549821242562 -0.6122480259702479 0.30104719734129604 0 0 0
1548 1 12.532860582496719 0.5283744002242547 15.218370499011296 0 2 1
833 1 10.086081077854951 0.20117173316333914 -0.31673119638975666 0 0 -1
443 1 13.024776135465851 1.3625127593541482 1.2936890748102172 -1 0 1
3448 1 12.533504648298289 16.107110028470935 1.1015985692071948 0 -1 1
842 1 13.598035496296564 0.5309246501993914 0.9411588764724343 0 -1 -1
101 1 14.125944151050199 1.0469162618523478 -0.51070888142677 0 -1 0
3580 1 11.70987159650756 -0.5920884923941353 -1.0481585606271957 0 0 2
1741 1 -1.2780070180998457 0.7125740852314357 -0.2748764048522576 1 1 1
3344 1 0.10544761954406501 0.9528645711651329 1.008727899476637 0 1 1
2281 1 -0.4010679902916021 0.4311029324655149 1.7546412158722786 0 0 -1
3834 1 0.06893962506854479 -0.32390856711946037 1.0765824124202146 0 0 1
860 1 1.4075158400364827 2.0962886464329937 2.1187272345454824 -1 0 0
2557 1 1.3875932239593696 -0.16736178564828874 16.051920396371827 1 0 -1
84 1 0.4343847259600808 1.0026623263707464 2.0760421448421598 1 0 0
217 1 1.8490364766376053 0.5843263612491767 0.7013212448374571 -1 0 0
2736 1 2.066873315222951 -0.9579665296984908 0.24527625535950248 -1 0 1
3030 1 3.0866944595248498 0.8253263991399424 0.7268178312720903 0 1 -1
2888 1 4.291737804580488 1.332668345825109 -0.5228070867006274 0 0 1
1074 1 6.494310822320173 -1.2985104666166944 0.7386362012577483 2 0 -1
3243 1 6.941269242452247 1.284324824425628 1.1166698129308426 -1 0 2
2449 1 8.262557730176036 0.6597919160753898 1.660258545854767 1 0 1
3479 1 8.029847117234498 0.5346361894109777 16.22610511836756 -1 0 -1
526 1 7.6507527130451916 0.49974335528179914 0.8929168307287663 -1 0 0
847 1 7.852409420284372 -0.3482900286226772 2.018421216681933 -1 0 1
2708 1 8.62832009053055 0.7150575209308871 0.3335037268971137 0 1 1
659 1 10.388399146927476 1.4662412836137633 1.3439138360395608 0 0 -1
3406 1 9.741796753137653 0.9612684968702934 3.091368945829762 0 1 1
1007 1 9.870488350476034 1.3370884329897104 -0.04692221715577971 1 1 1
2828 1 10.189955605248057 2.5178595067285023 1.4634103080384269 0 0 1
1921 1 12.191364972722523 2.0088598295348308 1.481281814488789 0 1 -1
3045 1 11.450834925680427 1.1571172146576933 1.1522858314929358 -1 1 0
3978 1 10.194035736049747 -0.6957749696645424 2.0829149676436907 1 0 1
1376 1 13.035844098575755 0.9612586447470255 -0.5047336052162414 -1 0 -1
727 1 14.5728566855222 0.7287858711786344 0.6329007946768448 -1 0 0
1678 1 16.066287003933088 1.255947689068214 0.8347553227404836 0 0 0
3551 1 -1.0135585436662837 2.743218094613338 0.8783664402847586 1 0 2
3920 1 -0.6783115989736981 1.4501555928051806 1.585304488627287 2 1 1
2446 1 -0.8150275677572146 3.270996817666976 -1.001618226141721 0 0 1
562 1 -0.012713923958870721 3.1441904144540116 0.9348284054622558 0 0 0
1264 1 1.3102658910383065 1.601238335551609 1.2309825770537026 0 0 1
1427 1 0.6605371636038544 1.561424442312573 0.5425621378361629 1 0 0
3983 1 2.6250041545310525 3.1964258810083486 0.941920388465777 1 1 0
1880 1 1.972016522549409 0.30298295716430257 -0.4765424669524547 1 1 -1
3224 1 1.239150003963371 3.387601601378604 0.42280557183784384 0 0 0
1330 1 2.0673018614215533 2.942261311089794 -0.07721726996235367 -1 1 0
322 1 2.4689050970819273 2.1916254509929907 0.4587678066284593 -1 0 -1
633 1 3.480242573819912 2.986225219499514 0.664405252347986 0 1 1
3612 1 4.329918566506417 2.2509084544833557 0.1977334465936098 0 0 2
3459 1 7.00458408647305 2.0553924025387573 0.3632043944956491 0 2 1
2435 1 4.047336747476102 0.8278692335392748 0.5528853986374731 1 -1 0
3238 1 4.457786253129271 3.635966084417416 1.4791701163091764 0 0 0
2818 1 5.983173074784663 2.58873438419661 1.078388848135409 1 0 0
2866 1 7.605469413361137 0.4558388692848403 -0.32490310135790257 1 1 0
3444 1 10.112527013032949 3.5622121847063255 2.0310179159455153 0 1 1
2923 1 8.883184135638242 2.3499568851538384 1.7704598967865395 0 1 0
3759 1 11.251682443003782 2.424036470538561 0.9472206418260058 0 1 1
2013 1 11.138485605764073 3.272170461029682 1.896273605689235 0 0 1
441 1 13.597555432133033 2.0870115937619227 -0.3538622086303682 -1 0 0
1513 1 15.061682009400581 1.9217912052879305 2.5746507955590565 -1 0 -1
1335 1 14.283716842700258 2.6930766679756575 0.3728640367429745 -1 0 0
1198 1 12.841983359454398 2.772233910910936 -0.9529482193650392 0 0 0
2341 1 15.70422718630795 4.1962674714979915 1.3068266013099752 -1 0 2
931 1 15.21079493133707 1.4569097755888696 1.3165365253429822 0 0 0
3940 1 -0.7774167309801575 2.690888180459361 -0.16816793719338885 -1 0 2
1298 1 15.718242247769535 2.8884223673093974 -0.8737796223121135 0 -1 1
1470 1 0.31147941830161496 2.334208723091996 -0.5015205030687677 2 0 0
3075 1 0.9300695271322184 4.197366009534803 2.214534808149466 0 -2 0
3984 1 0.35413395932705316 2.037743083264623 1.4819508268179709 1 1 1
3324 1 1.7157266330356995 2.506117646093364 1.1382843507210416 0 0 2
1302 1 2.9041461455488173 5.346170342902534 1.8609491664107414 0 1 0
2411 1 2.802905526679832 4.8283018333959085 0.35775513109732837 1 0 0
1600 1 7.427313488679101 4.520263619445265 1.9697361308493893 1 2 0
354 1 3.019683309829289 4.360824810233735 1.5444523498042844 2 1 -1
1808 1 3.4832916288351212 3.9636286064255692 0.11033638440342752 -1 -1 0
2224 1 5.3418240373381245 4.260969180028958 1.8044418847614385 0 1 1
917 1 8.173327072333153 3.3490353810337776 1.0371947726890354 1 0 -1
2025 1 7.123099161240956 3.529949384434853 2.0340486187535225 0 0 0
219 1 8.136389790583555 1.5183116088339936 2.480218049234172 -1 0 -1
2869 1 7.932819869985611 2.767539592510685 1.7877236753474892 0 0 1
3409 1 8.755938129920398 2.441428869627723 0.7733834970341817 0 1 -1
172 1 8.250535029002624 2.514488794229557 2.750207058483533 1 1 -1
270 1 9.267988718325073 3.312684158326558 1.2338499310666702 1 1 1
180 1 9.85378457002093 4.510371319329579 1.7227747941561637 0 1 0
1761 1 11.242854312753737 3.6880759905861185 2.8209787507901245 1 0 0
1348 1 10.490303663029035 5.395425257379001 1.1627405474088772 1 2 -2
3953 1 12.420504435904856 3.155832300377715 1.6158081266270576 0 1 0
3718 1 12.822635092996725 1.7837586215591754 0.3045373009662504 -1 -1 2
3369 1 11.362495032261245 5.475317918381896 0.5901888922170215 -2 0 1
1662 1 13.219530660767093 4.149752706807009 0.01748158468246941 0 0 -1
1243 1 13.492027745821007 3.104135577387347 1.2200771314559495 0 -1 0
1524 1 15.550437017126129 5.324417851162478 1.6420882711726428 0 -1 -1
1832 1 15.229817759469967 3.0841692758771293 0.22349533834074875 -1 -1 1
1271 1 14.155282482933423 3.767080199765732 0.6111178820333403 1 0 1
2857 1 -1.2266549610483481 3.3282920870867896 1.689410637366458 0 -1 1
3638 1 -0.45863742742899716 5.796672178541316 0.7516116834530289 1 0 1
3393 1 0.6836179658863226 4.038870892359863 1.2073060228872157 0 -1 1
3855 1 4.634637565848718 7.065225798064594 0.4191572379593511 0 0 1
2830 1 2.2109314013164574 6.003266205590657 2.0669424085361063 1 -1 0
2799 1 3.755861889887318 4.170282514698948 2.5937184043664425 0 1 0
1112 1 1.635533396292907 6.2542138877380395 1.1880530728390455 -1 0 0
2662 1 3.737850889754272 4.833683963383318 0.6138783480766117 0 2 -1
3814 1 2.1377610721722844 5.339755884888322 1.0899734480569312 0 0 2
1268 1 4.8344379879861705 6.453020995287118 2.1181808139368568 0 0 -1
3720 1 4.434264313035695 6.213649837537928 1.0732988415903923 1 0 1
691 1 6.191703711589569 4.956309526188811 2.4734301104044714 -1 1 1
3074 1 6.555223593422251 4.898842986061886 0.2760040842200826 1 0 0
3691 1 4.7322995154563525 4.730154299151786 0.876258484339981 -1 1 0
453 1 6.844592535175073 4.829186353547115 3.1489716835384085 1 1 0
2636 1 6.126452146505931 5.043288885209049 1.309665015854463 -1 -1 2
2389 1 9.123459271496849 4.624037052516448 2.895797207022887 0 1 1
2897 1 8.874081150087132 4.461374895379612 1.353867688842226 -1 0 2
648 1 9.160358081925645 6.803343040842764 2.859779875691241 1 0 1
1818 1 12.082369963231402 5.970912788714048 0.013678844213491637 1 -1 0
3006 1 11.982624658496222 7.088787139508698 -0.3238801584848836 -1 0 -1
3398 1 11.64227332354424 4.484294919993827 0.9266231447921998 0 0 0
932 1 12.246033681528345 6.171738160281006 2.393653099947612 0 1 0
3872 1 12.540859542368107 7.269814504784506 1.3600623160485013 0 0 0
624 1 16.0279681133627 6.280750109661572 1.0789647674881895 -1 1 -1
1048 1 13.316817437980164 5.1324604116036285 0.881448488397425 0 0 -1
1732 1 14.418342974708573 5.612321151496717 2.309243102884273 0 1 1
2078 1 15.782231002710741 4.217688998844652 -0.49233777955064184 -1 0 1
3986 1 0.2633192159832993 6.856467679974994 -0.054197690203442006 1 2 1
2555 1 15.513464443228678 6.638445975476355 2.1022907779360978 0 0 1
3287 1 -0.007991573683235442 8.431749985160247 -0.42417561782120683 -1 1 0
2073 1 0.5840041881429838 5.88299109538746 0.38759695784517256 1 1 0
1404 1 1.0900019398136966 5.00679444921564 0.8182172855070835 0 0 1
2136 1 1.1303421444468609 6.905383082750436 0.594692217681444 0 0 0
2785 1 3.54529275555016 7.503466271603616 2.2076882513347695 1 1 1
2199 1 2.7299183819055237 6.929856150946595 0.24140951771428742 0 0 0
2647 1 2.6423819346567274 7.00098354376955 2.426775430207601 0 0 -1
3114 1 3.6948320301550437 6.4112744139069004 2.114322263767419 0 0 -1
2678 1 4.467486560053559 7.309331892006426 1.6428967106016508 1 0 0
2233 1 5.238461311036588 6.859207245421988 3.139744275696269 1 1 0
552 1 5.646177368817431 6.593716957732467 0.5765546002236765 1 1 0
3555 1 8.249860214583595 7.033288168179007 0.7441895510446068 1 1 1
2451 1 8.07215939802224 5.302655328792705 2.4611863111480536 1 -1 -1
971 1 7.078694037415211 5.69290899418202 2.0610419414201546 0 1 0
2913 1 9.606245818118785 6.17646343071416 1.4305403820926954 0 0 0
107 1 9.118894515268073 5.3067278035230325 2.0441255631633313 0 1 0
3503 1 11.60336573565562 5.069271121567847 2.4937875873831783 2 0 0
2067 1 12.831362805487021 8.311900420663246 0.9748870572082189 0 -1 0
2320 1 9.727563308705065 7.292904220019398 3.710821675109929 0 0 0
3117 1 12.110072337928766 6.315179430563629 1.2176210206926958 0 1 1
2399 1 13.461917940851459 6.423491332571835 2.7595381334015077 1 0 -1
2417 1 15.525218101009187 7.096474238552473 0.8019530043894125 -1 -2 1
1468 1 -0.7102499262609707 7.054553933066822 3.00480897468133 1 1 0
2801 1 -1.1714457154585574 7.845988827724433 0.13993985542530418 0 -2 0
502 1 16.085155669373 7.391447108559872 -0.7312771877984351 -1 0 0
643 1 1.7472998926109904 8.153594468035458 0.9973878413039707 -1 0 0
171 1 2.4277806091458203 6.882413126560699 1.3654888677438617 1 0 0
3053 1 3.046497513841808 7.872321716332458 1.2582120608206027 0 0 1
2070 1 2.593248736046044 7.917641147214141 2.9631908643558758 1 -1 0
3832 1 1.151012479181488 9.415245000234636 2.1676903128206484 1 0 1
1853 1 4.152528256143333 8.441176102922565 1.9641954823569985 0 1 -1
2489 1 1.5274576460061753 8.329889845686674 2.036801835225652 0 0 1
1624 1 4.66379832164742 9.620671309236505 -0.6825001964964081 1 0 0
755 1 6.328782710937426 8.192349038710294 1.4849987603037609 1 1 -1
1725 1 5.462960239699229 7.275340593152983 1.640233784293037 -1 0 0
2300 1 7.575492683463722 8.541189872267422 1.731797544724187 0 0 1
3257 1 6.6467858434193365 8.968662606951625 2.413487100993626 0 -1 2
1457 1 6.550893375281082 7.034508629267712 1.1821413571080441 1 -1 1
3658 1 8.434422267994435 9.18653180878237 1.0906576981259857 0 -1 1
675 1 7.434697703572763 8.794952073645307 0.45524953145685476 0 -1 1
1220 1 9.621865624722371 7.925603409393942 1.049681801473469 0 0 -1
3166 1 10.149334195102556 8.82180302567653 0.5903487304089281 0 1 1
3277 1 9.74691953871544 8.006351362147507 -0.2933219293479836 0 0 1
762 1 10.43513411562511 9.003554044907155 -0.3359358928705444 0 1 0
999 1 11.599004204869079 8.808389403176168 0.8275353488667077 0 -1 0
1519 1 11.21707623128609 6.588664528221777 0.30690734072797077 1 0 -1
3034 1 13.199517073972007 10.142593508960639 1.8184847486270814 0 0 0
956 1 12.560001368286482 9.306970199095678 1.230215951124161 1 -1 0
2580 1 14.45042549499686 8.853383400844644 3.0052821954155595 0 0 1
1256 1 13.457233142466224 6.604285064450317 1.275440603349768 -1 0 0
1413 1 14.456743527571286 7.153380294909194 0.640707093796802 -1 1 0
3381 1 14.938846345689193 7.683706630960881 1.6183266605663165 -1 0 1
351 1 16.082009399870817 7.4631709744508115 2.197569676781206 0 0 0
806 1 0.2705181415251192 9.56725182814123 -0.6777526098935361 -1 -1 1
1842 1 3.5450546589704164 8.976443724230291 0.6427971395387968 1 -1 0
340 1 0.494863942582604 10.061690562317146 0.26252700986601885 1 0 0
492 1 0.32549747163762843 9.973534157772692 1.4901658981146957 -1 0 0
1125 1 1.784820073034362 9.246576885995355 1.3924110164771992 0 0 -1
2742 1 1.7994308469180864 10.861186794416067 -1.0767063587467813 0 0 0
1008 1 3.1445130822538916 9.499125474394283 1.385854522163966 0 -1 0
2506 1 4.3245424572180715 8.738011696390766 -0.017453544809253874 0 1 0
2110 1 2.3787709041312444 10.480239644995102 2.0021932677725647 0 -1 1
1056 1 2.5012569769095054 9.485119519866098 -0.013501165841506069 0 0 0
442 1 6.893224748690702 9.136041870935264 1.3790307556613381 -1 -1 0
3928 1 4.00076523936394 9.488135463839935 1.8301504500036367 -2 0 1
1017 1 9.546304678704155 10.988032454848488 0.7045219866659691 1 0 1
13 1 7.608740127153498 9.837962657528621 0.4306351861263127 0 0 -1
3522 1 7.8503323737511685 10.335983956532951 -0.47672696845600204 -2 -1 0
2322 1 7.78708734119564 9.849385054801077 1.8581934646089495 0 0 1
2993 1 7.637618702090123 10.704423695421282 1.0970860102599125 -2 0 1
77 1 9.968512834364116 9.965269507966466 0.7534263967582926 1 1 0
2725 1 9.869730760203064 10.551163733411126 1.7901535744268648 -1 0 0
286 1 11.372673993052722 8.471307238324927 2.457948290930346 0 1 1
3165 1 10.833400810139873 9.489607455548434 2.4904273651534172 0 1 0
3356 1 10.639424840954 9.375535332566168 1.4590385392286667 -1 1 0
2407 1 10.53109617206355 10.780366900724408 0.2984760950866787 0 -1 1
2193 1 11.8947821877867 10.77576173585221 0.7255897748998321 0 0 1
2120 1 11.442583183142467 9.519534839180645 -0.7439034070037055 -1 0 1
819 1 11.148223633494625 9.755568175460702 0.5101938664451482 -1 -1 0
1726 1 14.266653589558372 9.058752022277814 0.0027927384514510045 -1 0 1
3481 1 15.325759416257743 8.064511550992432 0.6468043069327558 -1 -1 0
844 1 13.414747521859708 10.90931377397585 0.9702872608389193 -1 -1 0
3743 1 15.140983168710697 9.27037134511917 1.7346743151776343 0 0 0
2566 1 -0.784165658464956 9.487807744412384 -0.2820917530232989 1 0 0
349 1 16.153115429101806 8.898401013876535 0.3286387308166496 -1 1 0
3231 1 -0.37291100210150696 10.108525060635394 0.8358812892083214 0 -1 0
3001 1 0.3900844182419525 10.933242333420898 1.202466448748813 -1 1 0
3699 1 -1.2405147103319814 12.52321271415617 16.161280694319654 0 -1 -1
179 1 1.1280842564281097 10.927111595931756 0.4852980677928007 -1 0 1
445 1 2.1868216001914798 10.581759780791408 -0.059770238673771736 0 -1 1
1190 1 2.083562387383492 11.356374448526573 0.655927207108989 1 2 -1
291 1 4.482534225933702 11.427551482132406 2.646240429414925 0 -1 1
3668 1 3.233534083323245 10.232434905286386 0.2263281009387752 1 -1 1
1831 1 3.232928807900187 11.394995392831518 0.3589766390608595 1 -1 0
2644 1 4.309052717578613 10.21647044686478 0.31937032891182926 0 0 1
106 1 5.303515738711926 9.982966697931824 1.0372520786781547 -1 -1 1
2615 1 3.2816165754508795 10.603525663504113 1.2550178010885351 -1 -2 0
2608 1 7.103284645011458 12.472078883854323 2.008689198653683 0 -1 1
1039 1 6.521311273557997 10.182626330786757 0.9551096145478728 0 1 0
2144 1 8.363831474744183 11.712774570829936 0.832068395426826 0 0 0
2383 1 8.813228033890114 11.0701507584155 0.002046136259670872 0 0 0
3525 1 10.662328301913947 12.803149225150491 1.1912371995495894 -1 1 0
1142 1 11.261739225117495 11.541935325551494 0.46811411512222567 0 0 0
2984 1 9.9093081631095 13.328642889389196 0.42575647774647174 -2 -1 0
3714 1 9.559658792587332 9.372590795355459 1.5497039090758031 2 0 1
965 1 11.757089738208403 11.218759741049247 -1.0760707986790152 0 -1 0
3358 1 12.230166258894094 11.610877195009868 0.040234494330829706 0 0 0
2353 1 11.42476018033306 10.644340468228807 -0.26731803221231787 -1 0 0
852 1 14.888062910199096 10.831506701168715 1.2733833498659806 0 -1 0
3925 1 14.175895990251169 10.128315958828706 1.0297443106868944 -1 0 1
398 1 15.597207518437866 9.763045575849263 0.5699741433024568 1 1 0
1751 1 -1.073917558826547 10.427128537546958 1.811138937249765 0 -1 1
2811 1 -1.2002694270770582 10.352061062783294 -0.23749167590371623 1 -1 2
2406 1 15.792978818951557 11.273801533501329 1.669428346692174 -1 0 1
3733 1 15.648538319160181 12.759745477697855 1.1875402747213748 0 -1 2
3339 1 -0.34004301218104727 13.477090283418484 0.16510093006798265 0 0 1
756 1 0.23527394219891185 12.766236290861757 0.6253217993915863 1 0 0
3111 1 1.9842121864045583 12.747215305523342 0.4670886081277674 0 -1 1
3293 1 1.1045119618278476 13.090192257876879 1.246606959771296 1 0 1
1212 1 2.6672845727445216 13.361667115589647 -0.18900999924051232 0 0 1
538 1 2.3670728995586447 10.107932161357427 0.8403110981749489 0 0 0
3316 1 2.5603941473287306 11.403277805493758 -0.5309362824149156 1 0 1
113 1 4.0251927131314105 13.442120682440146 -0.6550648774859792 2 -1 0
1521 1 6.3387901572701395 14.532042481947176 0.3992623944079383 -1 0 -1
1537 1 7.168044406198911 12.147357564299057 0.9608494099769032 -1 0 1
1206 1 4.53125418433441 12.24793999289327 1.7039758693577451 -1 -1 0
1291 1 9.267835852869787 14.287296024439668 0.8502502376828787 0 -1 0
2438 1 8.13238022471186 12.992872688177743 1.5720872310363987 1 0 0
306 1 9.320545822819117 11.929398459152345 0.973775597542371 -1 0 0
1860 1 9.78137696389401 12.706749907835462 -1.0234584726542724 0 0 0
3825 1 9.934187621732676 12.223835838144202 1.9865564720183748 0 0 1
1366 1 10.201542185972242 13.79555826567933 1.4877955068496935 -1 -1 1
2116 1 11.013101894268905 12.099831565656979 16.18959522547814 0 -1 -1
304 1 14.980514150769839 10.439469739550443 0.19271545873213136 -1 1 1
3966 1 12.103942359845366 13.936020979420157 1.7929564266402678 -2 0 1
3290 1 14.124412426014516 12.040050882912883 0.43620559733610564 -1 -2 0
3860 1 14.681288103022228 13.071459375511342 0.8286195155694913 0 0 1
1997 1 15.76388577735774 11.16953281621304 0.5796316420017722 -1 -1 -1
644 1 -0.3356966373375858 12.939203774795041 1.6735949699107127 -1 -1 0
1249 1 1.6860468162209474 12.450291611937512 1.8300589500140627 1 -1 -1
2921 1 1.1237256508006306 14.762986785294892 -0.9429432675646339 -1 0 0
3876 1 2.349548646892799 14.573144602495404 -0.14564657646470947 0 0 1
2006 1 1.9595699839154581 14.038995070156522 -0.99940547965118 1 -1 0
2273 1 5.9307723948654845 14.114849302152075 15.85596718473414 1 0 0
2881 1 2.479992396816913 15.232675168327969 1.6762651352983462 -1 -1 0
579 1 4.750627466168439 14.437574691577062 1.9931388279979796 0 -1 0
2944 1 8.55293017773152 14.05526798099123 1.6630547923669021 0 0 1
2938 1 6.321175631854173 15.48934039809172 2.2446628047219437 0 1 0
3937 1 5.4457742850628685 13.480033359459318 0.8012279825760733 0 0 0
2439 1 9.250831131769637 15.448146079566413 0.5008153811477434 0 -1 0
2793 1 8.906517311890386 13.273892366231717 0.3704539892428027 0 0 1
2053 1 8.438840359698576 13.650243371133994 3.303392267200512 1 -2 0
3198 1 10.331699912970581 12.980640840215587 2.5798091790692728 0 1 1
2206 1 10.668599125787297 15.127742668865789 1.0869074074347216 0 0 1
3823 1 11.585008373944786 14.724262536164641 2.1955726228961203 0 0 1
1716 1 10.535872685582879 14.21964090069152 -0.20577162014312833 -1 0 1
3487 1 12.710848241443728 15.128523859201685 1.6540289358455746 -1 0 0
2130 1 10.987740986087617 15.168674504625926 0.1529274538119214 -2 0 0
3489 1 13.358482078339128 14.82752091322665 0.8378868347460431 0 -1 1
1026 1 15.115474610405123 13.842930806125171 1.2520971164645056 -1 0 2
2983 1 16.07205538134981 12.94627831502537 2.115741272016084 0 -1 1
2443 1 -0.5272309548304375 12.879036759932623 3.1827012336983813 0 -1 1
523 1 -1.078819488890193 14.066958585076588 1.7822116887226493 0 -2 1
2769 1 -0.2149319206536786 14.512490955680219 1.954008957168365 0 -1 1
1384 1 1.4153078301811957 -0.43910454493706597 1.0728026725880118 0 0 2
3898 1 0.02078112902426965 14.36715177761825 0.5402722950847869 0 0 1
3539 1 -0.42633929247152325 11.820213692001897 2.8797934954351403 0 1 1
1094 1 0.2950499302539995 15.219502833779103 -0.2727253635267941 0 0 0
1715 1 2.1519336962820286 15.037213130465165 -1.2176950165515197 1 -1 0
2613 1 2.4542450020236037 -0.5860157066291394 1.22026715593877 1 0 1
2671 1 4.375000290277643 14.350919064826956 0.8099087575532198 0 -1 0
3021 1 4.078073863989863 15.201426641315528 1.3706002543536053 1 0 0
3972 1 4.010856171762071 15.488342679351376 2.5217334793454373 1 1 2
3895 1 5.752623524579132 15.856784261152253 1.379045803388249 -1 0 0
587 1 6.502356904204801 15.128158670625957 1.233022012158032 0 1 0
3585 1 7.250420520337373 14.41764356368601 -0.08451684497347034 0 0 1
2364 1 7.578605853201912 15.483957243568781 0.706579460222577 0 0 -1
549 1 8.248719483222951 13.946121954630186 -1.0239519180642636 0 0 0
2035 1 8.172290231471617 14.43756939435791 0.7263229816201378 2 -1 0
1885 1 8.196918258052715 15.007616751359318 -0.2752984833264671 -2 0 -1
3840 1 11.874019385006724 -1.0270663211516209 0.09088327399617846 -1 0 0
3863 1 10.023236203732901 14.191321261528577 3.261702324052176 0 -1 1
2546 1 11.05392506186313 0.626300210097201 3.218058012840352 0 0 0
508 1 13.165682499200777 16.06957229137225 1.970272829825218 0 0 1
383 1 12.680725593392848 14.603857590126575 2.5452889949332933 -1 0 -1
537 1 13.361997444557316 15.416651351744463 2.610472204891769 0 -1 0
829 1 14.803840126852908 14.218100597520243 2.16567748385598 1 -2 -1
2241 1 15.549421626296738 -1.1007579733241 1.6918437682159744 -1 -1 1
3933 1 14.679815380379202 -0.3939576193233888 0.7743290141008119 -1 1 2
385 1 -0.9374696532893962 -0.9190041766484591 2.4418753232033006 0 1 0
3785 1 0.09595155582162285 -0.42558536352775755 2.1241531742781223 0 0 0
3049 1 1.4274768342557143 15.151585299905001 2.071943794164949 0 0 2
3688 1 0.7044912516082005 15.170329300336256 2.814286422826145 0 0 1
1031 1 0.25088842186803006 -1.0361620749532747 2.979175118161474 1 1 -1
1153 1 1.959711329305578 -1.1265759685008185 2.027665765905056 1 1 0
228 1 2.893303609012932 15.68545614504184 2.577903920831653 1 0 0
2812 1 2.4423472181755668 0.06325859930188216 2.5405048527690357 0 0 1
3597 1 3.0873243253700107 -0.8742505947884771 2.402664685774107 1 0 2
3443 1 3.1208008607189184 16.073141220122377 1.527135270050501 0 -2 1
2677 1 4.318492756324376 0.7559210966631307 3.497044929465199 0 0 0
3461 1 7.033628120697175 -0.17472905356734691 2.5855883254936827 1 0 0
3592 1 7.934451642742571 -0.47867290336075985 0.34063091345318286 1 1 0
3267 1 7.905105973047073 -0.7952162778226333 2.9922915953543106 0 0 1
3210 1 6.28086359435778 -1.035900994631464 2.0318753287171787 0 0 2
2862 1 8.455856111143532 16.203441559245096 1.2125957300843178 0 1 0
2992 1 10.54583967477 15.960761411222844 3.04701507870226 0 0 0
935 1 9.15361116351586 0.24946604549895146 3.707695799753478 0 0 -1
3529 1 12.372884733019832 -0.5942351576910244 2.1006221951054767 -1 0 0
1099 1 12.510153963701825 0.4372864231192486 1.7204079566615076 0 1 0
3498 1 14.367252259357283 0.1660242028072858 1.5950996001992461 0 1 1
2928 1 14.441749388970377 -0.2696118467759461 2.7609331855193533 -2 -1 1
11 1 13.292658675730678 -0.500685949752815 1.4022515577255987 1 1 0
3060 1 12.611754453237383 16.186603614081235 2.798919768938016 1 0 0
215 1 -1.0665617087479922 -0.4980416738399306 1.3142689588116898 0 1 1
1550 1 14.972953996963838 -1.1620876765142154 2.7228355976434875 0 0 1
3974 1 15.867807542164812 -0.9261390084724643 3.403315529804087 -1 0 2
3269 1 -0.4299351529067851 0.9977185037113565 2.6568466758677047 0 0 0
2471 1 0.2964407001000007 2.3496289466971247 2.480529475343248 1 1 0
3182 1 -0.351312958208884 15.659076873479297 2.544266117627225 0 1 0
183 1 -0.14228426063413613 0.9739225663516438 4.4771979801232975 0 0 1
692 1 1.1871026877628017 1.2126481036082266 2.6366503531040326 -1 0 0
3476 1 3.165466719533952 1.827012854897248 1.3174899773423716 1 0 1
2959 1 3.257778556909922 0.8689248922854942 2.0343004435676924 1 1 0
568 1 3.901979843579128 -0.04277931493622078 1.2821632900121074 -1 1 0
384 1 4.208023252281705 2.4362058035253504 1.6585871293116181 0 1 -1
850 1 3.8948960118556304 0.11488146353424278 2.6815623382642246 0 0 0
2262 1 5.773316332043974 0.7817008723814847 0.7127110557804639 0 0 1
1755 1 5.09587598673312 1.9122800049883661 1.210137417708157 1 1 0
2105 1 5.020049135261296 -0.6632255217169444 1.8905427597035707 1 1 0
2943 1 7.003351487551651 -0.2746036189914147 0.9183092916853686 0 0 -1
2043 1 10.850609168358615 1.6930238408511693 3.0281511316755294 -2 1 1
2258 1 10.142366329250217 -0.4998204493295225 0.8475035582881532 -1 0 0
713 1 8.638791034879675 -1.0477767747927529 2.212856909385949 0 -1 -1
1438 1 9.321977190654161 2.606050759093228 2.9228601708127133 0 1 1
1282 1 9.50475619076882 -1.1629557335377305 1.2963150921725815 -1 0 0
3292 1 11.035369546161164 2.103785877470263 2.006897323649435 -2 0 0
1720 1 12.461057278909621 0.41329411282766526 2.88480151992223 0 0 0
3345 1 10.207409812165114 0.7012762940156159 2.166865143888553 0 0 1
1251 1 13.901382661930391 1.444161543714913 0.63340392919254 0 1 0
1932 1 15.576347914919978 -0.206668077843571 2.30697313598298 -1 0 0
2896 1 13.51152646917638 0.5058201053366338 2.2730244282160808 0 0 1
3451 1 13.513277469312952 0.14869343582307515 3.321349365842134 -1 1 1
1292 1 16.10572527204362 0.8243516772776589 1.9202002133752982 -2 0 0
2690 1 -0.5853553347733623 2.6625779410168464 3.2555337603341847 1 0 2
3554 1 0.08727542025894763 3.46228468620371 2.1201948813038016 0 0 2
1088 1 16.064171830122547 2.735008451125781 2.6580594403893505 0 0 0
1205 1 -0.5920828986935704 2.551873721281244 1.8935117218584576 0 -1 1
651 1 -0.4859082060836074 4.175294947041173 1.419206753157356 0 -1 -1
2039 1 2.176189389604533 1.4453134945098012 2.3097763150746715 1 0 0
1456 1 2.5835346223187794 2.4488052756828496 2.3550116153663474 1 1 0
2316 1 4.190250250161325 1.174329580522481 2.20384673199066 1 0 0
1355 1 5.250721114435684 1.6322863836186312 0.18033386680048502 1 -1 1
348 1 4.94792342233813 2.9167158472023917 0.8456430681156273 1 1 -1
1695 1 6.323430711607228 2.572414539194588 2.427952731365436 0 0 0
1952 1 8.088157760692551 1.6580851191385868 1.406479758429719 1 1 0
370 1 9.088328629859651 1.1519387917779396 2.10100024654238 0 1 0
3977 1 9.134238385551242 -0.06998906909033753 2.0736566397201472 1 2 0
1822 1 10.395297855357729 2.787661565447432 2.671608599745208 0 0 0
1385 1 9.890397741065007 1.8642061050824794 2.377655132400071 -1 0 0
429 1 13.716577456772873 3.4977420083693955 2.207023316672969 0 -1 -1
302 1 14.414932080921023 2.620566872893335 1.9651915423671498 0 0 0
1577 1 11.887510576683997 2.1911889707513232 2.5048371447374542 -1 0 -1
2605 1 15.627274921625581 -0.7730219365200293 0.5510297307680709 -2 1 1
2234 1 15.769843886902919 3.673134903999637 2.514758047966337 1 1 0
1575 1 15.99181868120747 2.2261213572687524 1.611822501102322 -1 1 1
1999 1 15.93448687841099 3.0042559009204544 3.7243557744376785 0 0 0
640 1 2.1827488354415814 4.599903911594916 2.1031244836504204 2 0 1
3202 1 1.6880496522042825 2.881424793014836 2.6928583885556465 0 1 2
1463 1 -0.7785285943946821 5.405502619570684 1.6851630686979915 0 0 -1
386 1 2.8483991672317073 4.610845103801735 4.447250064079111 0 0 0
1942 1 2.5211785211436313 3.596254960592927 2.111643177826529 1 0 1
3480 1 5.088770545449496 2.739974613140256 2.0924228486163114 0 0 1
1211 1 3.4562761087723946 3.2632351961649917 1.8059575847007112 0 0 1
2267 1 7.133544154768854 2.0778748185765936 1.890349905083402 1 1 0
3375 1 6.011243255123838 3.406372797899194 1.614766612100333 -1 1 0
945 1 8.082285816333114 4.417550184844835 3.4750477718078336 0 -1 0
1779 1 9.669943565690973 3.60367668017044 3.0040817097565196 0 0 1
2310 1 8.918054733120131 3.3966145552248355 3.626881624812973 0 1 -1
3155 1 8.95708924844734 3.356121953028122 2.1729839460699836 0 1 0
2131 1 7.144166038075532 1.8591703632817294 3.0602359166178665 0 0 -1
3513 1 10.787882639038289 5.575586109986302 2.7393560966100017 1 0 0
3679 1 12.41606251796323 4.057900273079988 2.340816751959657 2 -1 0
2797 1 13.202976014146566 4.368333978907348 1.5964096009346762 1 1 0
834 1 14.215692819957768 4.7658078417810765 1.411450956884598 0 -1 -1
90 1 13.284347569209533 2.7774747007672316 2.912461442507337 0 -1 -1
506 1 13.87149055901428 1.7920607839558107 2.62453455382636 0 1 1
2584 1 14.582958455890378 2.9147063415935426 2.9303009516426224 -1 1 1
1994 1 15.230892273160471 4.431531338757811 2.2061897094036995 0 1 1
1374 1 -1.2144020947748593 6.276805085358304 4.866573012534474 0 1 0
192 1 -1.3000510758325028 4.177174323211963 3.401447788358083 1 -1 0
2245 1 -1.1850551460452043 4.467536286451681 2.0855933408953273 0 0 -1
1179 1 0.11322000228697182 6.352630982114199 2.264648023626793 1 0 -1
2139 1 0.24585089207099498 5.149435884819104 1.7249627852541631 0 0 0
1882 1 1.0533456760255522 4.875534801246356 3.083864802716782 0 0 0
2333 1 2.05884689123196 5.4708101420686 3.1191605168550405 0 2 0
1013 1 2.9420111239277364 4.873844167670065 2.836872650077363 0 -1 1
754 1 4.022885256053155 6.587042498984729 4.11412470968559 1 1 0
890 1 2.9597253722431436 5.916025291950463 3.8514855952512024 -1 -1 -1
2927 1 2.8183756611895623 5.992554757809664 2.813804075194028 0 -1 0
1365 1 3.9642897687310183 5.257900480404349 2.2292265634113826 0 1 -1
2008 1 4.9071592950533605 4.06491933487377 2.7152205565911727 0 1 -1
2402 1 6.165503475344112 7.551052201413 3.379655604676538 0 0 0
285 1 5.877668033371459 6.154508244576543 2.6045359639303687 0 0 -1
1096 1 6.40763024178238 3.9222133409748317 2.681246611638145 1 0 0
3656 1 8.37642045005477 6.139052529732038 3.1338604507258863 0 0 2
283 1 8.511987109551763 7.172897188425194 3.8344144205298933 0 0 0
3609 1 8.229336871501244 4.124403906854732 2.5030262930896994 0 -1 0
2716 1 10.291727815076221 6.414626530546818 3.5815047254582204 0 -1 1
476 1 10.07827590140371 7.294843617069816 2.301669204729082 2 -1 -1
2722 1 14.762555108474341 3.5647730316231216 1.780881214412131 0 1 1
1517 1 12.910755349322093 7.276479973645213 2.3306215440097198 -1 0 0
2376 1 14.632416781142558 6.542990476052961 2.75583037731624 -2 0 1
154 1 -0.831209369901275 6.682083176434955 1.810091200455163 0 0 -1
1454 1 -1.0380129527729989 4.592599966737045 0.44857795774137754 1 1 1
1876 1 15.43594769974991 5.468998491624024 2.664691746813197 -1 1 0
2271 1 14.348747038920617 7.5639270113172845 2.6172472844500745 -1 0 -1
883 1 0.6606416972798907 7.5669418330034794 1.4768144414055984 0 0 0
1950 1 -1.1696768054692008 8.07824141148158 3.116307258687354 1 1 0
153 1 0.8404542041703187 7.844837459809778 0.09290845687971894 0 0 1
1571 1 0.8075981147714053 6.059074732248727 3.7835675305894165 -1 0 0
1430 1 0.3006401224670141 6.419801428145843 1.250601123758266 0 -1 0
2922 1 1.882597620365801 7.115544723687785 3.0438025301935863 -1 -1 2
3485 1 1.5379470736056784 8.06633135282941 3.1501527339865936 1 0 1
864 1 3.1771810980546213 6.84971224734492 3.355730061833331 -1 0 1
1299 1 4.256905493840129 6.114360671209371 3.0976588403360665 0 -1 0
3988 1 4.434047293222886 7.428496950481682 2.6539408273377885 2 1 0
2442 1 3.8416432646731575 5.048659073293488 3.2396589583664825 -1 0 1
2457 1 4.581108609572775 7.448643057268516 3.7285449277719547 1 -1 1
2495 1 5.210457592495538 5.924385774726483 3.557070400746386 1 -1 1
3430 1 7.985071211998333 6.533793949968612 2.073896666372469 0 1 0
2702 1 7.670135776888303 5.305507517356131 3.315780647261623 1 0 1
591 1 7.4981515786881765 7.850829417617687 2.8313896222555526 1 0 0
1911 1 9.178938564583541 7.158655167547947 1.5129925699898688 0 1 0
972 1 10.67746838858386 5.210154884493177 4.105065871607049 0 1 0
2496 1 9.205816595964171 7.962052134999201 2.8869715390263515 1 0 0
3661 1 11.70012598291028 7.227815319914219 2.096508399409929 0 0 2
46 1 10.922631663341098 6.647933787337819 2.673719883677817 0 -1 -1
2354 1 11.037931446769484 7.553833823794866 2.884876913498898 0 1 0
3965 1 12.778389000378331 5.221154052975834 2.4966504575162993 -1 1 1
1972 1 14.056293442195473 8.305981493849727 1.0720810436679136 -2 0 0
3061 1 14.224064384830605 6.825903073198562 1.8736490318083425 -1 1 0
968 1 13.46135761380004 9.61827003820533 2.996518350217018 0 0 0
795 1 13.626869119386638 8.104277866592831 1.9933616069599505 1 1 1
2063 1 14.984562498490817 7.211081297874085 3.575204989350861 -1 2 1
2752 1 -1.1204304341377502 7.738410351964028 1.2029950813612982 1 1 0
393 1 -0.0497410980735673 7.450151736744143 0.7113111459024819 1 0 0
2962 1 0.6650633024379156 8.953215992522669 1.019141882074078 0 -1 1
109 1 3.5503058831636647 7.888400754156269 3.382307795615321 0 0 0
115 1 3.0704730992004237 8.673677120744326 2.210998915757657 1 0 -1
2153 1 3.082860384707166 9.326588524417732 3.2719549971813526 2 1 0
1316 1 5.519067575010993 7.806153702585785 2.5806713642210672 0 0 0
3245 1 3.7118050163109064 10.729833821806734 3.4047180234776544 0 -1 2
3873 1 5.698281390888202 7.150096211750217 5.24132075740036 1 0 0
3678 1 6.605875259639273 7.356919181205095 2.42802407306399 1 0 1
1432 1 8.718316078732048 8.114389899537091 1.0783270638784836 0 0 0
1961 1 9.339942355782872 8.445924602007635 1.9681315040934129 0 0 1
1547 1 8.358374931178378 7.778094569833872 2.0755992306599786 0 0 0
1703 1 8.096195935440068 8.828153461206846 3.1139163260952074 1 1 1
337 1 10.473315753285506 7.1146483112085654 1.1958965861489634 -1 0 0
1262 1 9.582435565830997 9.002989543700458 2.9593596646918625 -1 0 0
2490 1 11.200584285794262 7.973447517532987 1.5032507679837779 0 -1 0
3080 1 11.07049356208228 6.368806769781155 1.556609261152334 0 0 2
2321 1 11.890080404330247 9.586057770069791 1.9457204838196227 0 1 1
2904 1 12.376684232403502 10.14198831317375 2.8001134367110305 -1 -1 1
2312 1 11.988352866907979 7.861605734659905 0.6289055510703567 -1 0 0
3250 1 13.075318970684688 8.993170459180474 2.1705912282005535 -1 0 0
1219 1 14.858817871505568 9.066692807081912 0.819184814444688 0 -1 -1
2534 1 -0.2871820076205942 9.11615482716046 3.062932245749697 0 -1 1
1148 1 15.260990580357394 8.260345468985141 2.4246877600158836 -1 -1 0
3043 1 15.510022680958244 8.376244454488232 3.632194145067171 -2 0 2
3048 1 16.15713473617119 8.932900144547565 2.434237314467821 -1 0 1
3622 1 -0.36969074481568165 8.42573885943431 0.6157486469804181 0 0 0
1435 1 -0.5203446658778437 7.909010534126573 2.2828295452885694 0 0 0
763 1 0.7321867779043116 8.92053654254293 3.011441900483998 -1 -1 1
1886 1 4.595803376541056 9.117769709687527 0.9477791268258979 1 0 0
1232 1 5.689598769948015 10.711046546458967 1.8972737702534048 0 -1 -1
2541 1 4.154480566355286 9.21833258870667 3.3506106466542294 1 -1 0
427 1 6.88414144885129 10.464589422782748 2.0474950379278094 0 0 0
1437 1 7.255142713479664 10.974079085179499 2.885430175202644 1 1 -1
2338 1 5.7767372981155445 9.287773688809356 1.5441313090096114 1 0 0
1889 1 8.70547400298793 9.493136104675354 2.194667916388734 -1 1 1
341 1 7.646519124148217 10.04537087375537 2.785798561136083 0 -1 0
1359 1 8.84803994215088 10.187884142205734 4.631092226741936 1 0 0
729 1 8.444315203499507 10.580506098921948 2.3836876908174585 0 0 -1
2313 1 11.497483594740086 10.976779284248602 2.668591732502555 -1 1 0
1826 1 11.740555683044668 12.107248213667496 2.1080513307040043 1 0 0
3811 1 12.24284182294592 10.936473228571503 3.589753922052493 -1 0 0
3533 1 11.157654736241117 10.276806605261378 1.4668098123385134 -1 -1 1
1215 1 13.330692054637177 11.923814804871201 3.139898013769521 0 -1 1
3099 1 12.341057715019724 10.717083673727835 1.6659290646142626 -1 0 1
1081 1 13.430523841061953 11.272631612140064 2.307614238461654 -1 0 -1
144 1 15.982943975735399 9.809574032081395 2.9775685586766 0 0 0
3636 1 15.754862195128865 8.435658113639896 1.5529034336920118 1 1 0
1588 1 15.365039449860749 10.433772829537821 2.112707010062361 -1 0 0
1447 1 -0.5220335992395333 9.620660690000841 2.0118462460286994 0 -1 1
2409 1 -1.2709977300213509 9.495683609174584 1.2223584268195586 0 -1 0
2504 1 0.14475801395885712 11.776651754299618 0.14177682534410785 1 0 1
565 1 1.4642338259072027 10.497754381282919 1.5098302174735072 0 -1 1
3187 1 1.095048180039068 12.085448772708306 0.6301114699845825 1 1 0
1639 1 3.1457568644636966 11.224113582885032 2.3511580632281786 1 -1 0
3332 1 1.791406651162046 11.449211729703311 1.713829822397439 -1 -1 0
3911 1 3.0075570483770253 12.363246118474985 0.10926363001489392 1 0 2
3947 1 3.6405409537141837 11.567912022416385 1.3386069040447612 1 0 2
255 1 4.625117573909997 13.153413795269575 2.2852095937818335 0 0 0
987 1 6.621735802409874 11.544599748998003 2.2845527295096013 0 1 0
3640 1 4.413759461989897 10.622369112490349 1.3178824626599681 0 -1 1
1792 1 7.8783273804051674 11.86345053173882 2.701502894386631 1 -2 1
604 1 7.687344275988352 11.251830531765073 1.8981147157223544 -1 0 0
1272 1 8.703617293922635 10.24227670537026 1.3959090226465283 1 0 1
897 1 8.156387811314545 11.14686344868917 3.6084726342005515 0 -2 0
3614 1 11.91236280781837 12.497096650787737 0.5929857135129639 0 -1 1
1194 1 9.909601793941391 9.997218651213023 2.7769388313974925 0 0 0
796 1 10.234867911379355 11.035934276748264 2.6634164809740026 1 1 1
254 1 11.514932568988403 11.316971468268335 1.5255738041391007 -2 -1 0
608 1 12.743885103254915 11.694551550862741 1.4642893017514802 -1 0 -1
275 1 12.404607825622723 11.351880235562975 2.540166775811816 1 0 0
1464 1 13.117868012358691 11.898402870261396 0.3921132836990828 0 -1 0
2210 1 14.745933955222135 11.12051765093755 2.7196372156534387 0 -1 1
2296 1 15.71818298433855 11.833536174141441 3.3804081837800712 -1 1 0
1743 1 -1.2204474318366276 11.112106933746627 2.6435439027408627 0 -1 0
319 1 -0.6503943682959881 10.319382944304857 3.0091263363935816 1 1 -1
3118 1 -0.35170156918199524 10.615019669720665 4.638680670955299 2 1 0
1015 1 0.8381318197902536 10.645945974936458 4.2194985582327 0 1 1
3424 1 0.9813531128063664 13.068927491360386 2.401130632482805 1 1 2
3943 1 1.8594655303653767 13.785484165600257 0.3117818344644996 0 1 1
202 1 2.945444233933097 13.349805897815658 1.9745172786810996 1 0 -1
1158 1 2.8360409512966633 13.07572839918739 0.8140113944597736 1 0 -1
3057 1 3.948348403240189 12.395005756033365 0.6081447637428763 -2 0 1
1105 1 3.8391036228079676 13.98758368382259 2.086327779259633 1 0 -1
1423 1 5.784285254569671 11.231655080662994 0.8534917084087961 0 -1 -1
606 1 6.72759972780308 11.149169186406585 1.204830226752648 0 1 0
1626 1 6.269996117823296 14.57636754096918 -0.7363848671764857 0 -1 0
1593 1 5.96790260866475 12.028474670506885 1.502190370104417 1 -1 0
2057 1 6.634448982162286 12.623160332098344 2.967124913468097 0 0 0
2533 1 6.416388927341818 12.823543334367635 1.0242543760429021 -1 -1 -1
3208 1 8.899572208423573 12.25860305026529 2.191704687659829 -1 -1 0
805 1 9.115339913266391 12.345934547163145 4.186150730120683 0 0 1
1906 1 8.249876934837314 12.532177283845442 3.5806198886276883 -1 1 0
2592 1 10.16098440865054 11.31694818429977 4.209513169158286 0 1 1
3259 1 10.843679315302829 11.944682117782655 3.2497184073266743 0 0 0
3998 1 12.119788797006088 13.802578417793894 2.875215881146291 0 0 1
1416 1 11.663425636285078 13.083469476475372 1.5375376164285068 -1 0 0
468 1 14.124792347482725 11.602548120430049 1.3916821184999288 0 -1 1
2965 1 14.930357471021424 13.086399652790487 1.864000882687065 -1 0 2
105 1 12.959174393028427 12.850278373366328 0.5437389945253426 1 0 0
2023 1 13.891104791141178 12.63094318088504 1.6487795963722722 -2 -2 0
970 1 14.635461045079738 12.18212439245302 3.427890031496011 -1 -1 1
3602 1 -1.055130918434894 12.170056899153138 1.572706667627473 1 0 0
2510 1 0.1727973903939184 11.839652820131924 1.7109835626763616 0 0 0
3082 1 0.5386786689765899 13.942036985723847 1.61152136426215 -1 -1 -1
621 1 -0.47736023280588624 14.158475902385264 4.274652743029941 0 -1 -1
2250 1 2.1387517859995673 13.55181592403728 1.326861629765932 1 1 0
1041 1 1.9220459265333543 14.656381762059747 0.9703771263351877 0 -2 1
1868 1 3.575118799163617 13.76874318122668 1.1575372214376083 0 -1 0
1018 1 2.0656802617261127 15.399755866052569 2.990670207711024 2 0 -1
3283 1 3.233511382812061 14.692426293467559 2.726684099983313 -1 0 0
121 1 3.1696648130310034 14.785819968827397 1.0128648957817097 1 0 -1
3407 1 5.637897275928879 13.762723745418716 2.5234544503442637 -1 -1 1
3321 1 4.553599273815662 13.240968893705977 1.2627799961966297 -1 -1 1
1729 1 7.775484054832134 14.110941683376234 2.7387039400917645 0 -1 0
1557 1 7.219282555039607 13.59662244426269 1.7116554000424635 1 -1 -1
616 1 9.314149958629306 13.052772167279027 1.3336415259110868 -1 -1 0
2106 1 6.123422603139878 12.94294811358251 2.0865660685146805 1 0 1
490 1 7.8590236840672745 13.010657053381607 2.6008211395279304 0 0 0
3496 1 9.356151947267145 13.722149428764986 2.289784417660777 0 0 0
2856 1 10.729092139593918 14.990042900195089 2.758833819448994 0 -1 0
1683 1 11.644112566300116 12.723720258721544 2.8946835859361872 1 0 0
2804 1 12.94881392405344 13.313220377623807 1.6107179181050255 -1 -1 0
2577 1 11.482473007758587 16.235385760603698 2.3835110497734626 -1 0 1
1237 1 12.712321368952855 14.275811667147082 0.25937002332364645 1 -1 -1
3157 1 12.914817027273582 14.804640064603909 3.6192780726493936 1 0 1
3215 1 13.944197119590703 13.800535788165345 1.7127906463650007 -1 -1 0
2532 1 13.96702459436906 14.98357944148681 1.7518176415672126 -1 -2 1
489 1 13.819587763012123 14.26981650148669 2.6715870632721908 -2 0 -1
2640 1 15.005280524903487 11.969136677926638 1.4616554213465989 -1 -1 0
2910 1 -1.1802548372863153 13.375467496674917 4.0944072653099095 0 0 0
2217 1 -1.279680046715935 13.914923756027354 3.024799465992338 1 -1 1
2894 1 15.808287765132857 15.659897708052018 2.489249218583813 1 -1 2
78 1 -0.400234709896356 15.541194429305271 0.6940640515612599 0 -1 1
3384 1 -0.7053530122349927 15.028225445138151 3.668154853232691 1 0 2
973 1 -1.0736934776731115 15.979589305110547 1.6739807741150772 0 -1 1
3990 1 1.0127342299533475 14.2455915102805 -0.1416963938146345 1 0 1
125 1 0.8688568783064934 -1.2150924228896818 1.4497641783578774 1 1 0
1752 1 0.8363441693821958 14.802579219152502 0.9799070391998344 0 -1 0
1009 1 1.743451701849311 15.878838127137477 1.0048074049654168 0 0 0
1998 1 4.116635928503555 16.223226615882428 1.89444319174039 2 0 1
1536 1 2.2017003522363248 14.374249270174856 2.1667341434539065 1 1 1
3367 1 2.756465073262815 15.707415604785485 0.563999954294079 -1 0 -1
2334 1 5.2126940470153444 14.966664128948224 3.1034816268610026 -1 0 2
634 1 4.998041484533023 15.440624405304387 1.9409116490255123 0 -1 0
2524 1 7.209249333453316 -1.2815153896296856 1.4119463553264735 -1 1 0
3416 1 6.243170323436419 14.012699375906042 1.2320980684325313 -1 -1 1
3600 1 7.302190990080483 15.320396283602122 2.0312809415722013 -1 1 0
1567 1 8.971946007417017 -0.8863889175769951 3.4818926754647475 0 1 0
1369 1 9.875112758680292 14.681770435732746 1.879551572663487 -1 -1 -1
3164 1 8.875368588793108 14.549328173901444 2.8883863832943772 1 0 2
2421 1 9.359753630623233 13.262249800242163 3.7332004790559568 -1 -1 0
3951 1 10.642322552071784 15.859539796630123 2.0913844392066805 0 0 2
2873 1 11.404711582249993 -0.8483413032049625 1.348568986785371 1 1 1
2737 1 11.659349353556658 15.605676433701873 1.3684570293339675 0 -1 1
974 1 11.592215491007954 15.641672890909817 3.309106551879063 -1 -1 0
3767 1 11.37897714336046 14.473186058220357 3.5672651315768213 0 0 1
3180 1 11.754934650440376 13.207700463860595 3.866128870610675 -1 1 1
120 1 14.650272647929436 14.374239116642038 3.379521105279622 -1 -1 0
887 1 14.50550084315152 15.212811314507984 2.520534907898682 -2 0 1
3605 1 -0.6482316078713173 16.011583983247043 3.413154442684826 0 -2 1
3362 1 1.5759871989400196 0.9709671002007663 3.6804656197987304 -1 0 0
2276 1 0.8649186520846648 0.2846611730876436 2.7606185170405313 0 1 -1
3452 1 0.23301910002324466 -0.7021820835811545 4.042146317916142 0 1 1
2309 1 1.3923611517723002 15.357082086935424 3.823011010847659 0 -1 -1
1915 1 3.8047761015879624 16.214477045715377 3.384622589029399 1 0 0
3124 1 2.5636878994771526 0.07196321008414053 3.9297770282049242 0 0 -1
1948 1 4.512010226657525 -0.9301877822985865 2.681531906089609 0 1 0
2616 1 5.003831558811549 0.18261842781738435 1.334480930751158 1 1 2
24 1 4.100632498764741 -1.019111472386226 0.787255200474064 0 0 -1
610 1 4.996174067681903 -0.7497239018745098 4.019934088675322 0 1 0
2623 1 6.043297999065377 15.992068087383569 4.340715539510573 0 0 1
3323 1 4.976855285893126 0.2676849831440833 2.4080368334790117 -1 1 0
3096 1 5.634102409681574 0.23792995949761542 3.7547667677146945 0 1 0
1917 1 6.002412990799779 0.13478359878470925 2.0796361670641774 1 1 0
3696 1 6.1881401530599485 -0.7048650633652858 3.004723057394754 0 0 1
2877 1 9.247730528123375 0.8730709874017375 4.732507955464123 1 0 1
1549 1 9.271139207235253 -0.8745724570738991 5.734545324182726 0 1 0
3139 1 9.811072106917686 -0.2458059665343788 3.1229566150620762 1 1 -1
2505 1 10.833530120795825 -0.49412731855254577 2.9147437368236213 1 1 0
2444 1 10.241997636786799 -0.03023651627622881 4.067751218690869 -1 -1 2
1333 1 13.694040342495471 -0.3386509677453239 4.205026367277554 -1 0 -1
438 1 14.020505304007655 16.18221168638756 2.4747323221724167 0 -1 1
2175 1 14.936502404588335 -0.863222120873705 4.718613206471653 -2 0 2
2905 1 14.565212291168091 0.3748020489729347 4.162116925072231 0 0 0
2807 1 15.85970158768454 1.0732411599030103 3.0170937001640494 -1 0 1
3255 1 15.723957278674469 -0.004288841496973728 3.803582862266424 -1 0 0
444 1 15.643181307408938 2.957601797809792 4.845698545675941 -1 1 0
2295 1 16.063476134897208 1.9453033807594577 3.400439206832724 -2 1 0
1990 1 -0.06203766339583461 0.15672683003870524 3.0711375164329935 0 1 -1
682 1 -0.04975947175624729 -0.9252738523091093 5.337496549623177 0 1 -1
1275 1 0.2760362111691894 1.3195672846253812 3.3264865456509725 0 1 -1
3162 1 2.6817897115250893 0.8579656068688921 3.1518271081089333 1 0 2
1458 1 3.4161976178399858 -0.15539549706403877 5.479286503125374 1 0 -1
2942 1 2.449763302146959 0.7419323950684933 5.381271859265137 0 0 1
2579 1 3.690536844494824 1.447901168053043 3.2253553603956897 1 0 0
911 1 3.345486566064448 0.988050416129854 4.48513008516904 1 0 0
2790 1 6.460425094115316 0.5091090800911746 3.2602145066452213 2 0 0
638 1 4.052497117706925 -0.13150947728554385 3.9946547407112627 1 0 0
835 1 6.929607881831634 0.3966519633924952 1.7445121957370127 1 -1 -1
921 1 6.292551809769986 1.2569191453534563 2.0879738030872903 0 0 0
1772 1 8.979200124626416 1.6582740133290184 4.103038621848938 1 1 0
2367 1 8.293561039887726 0.34377116327928237 2.7192654484837933 -1 2 -1
642 1 9.92167423861307 2.0544459519222174 3.5789038528986534 -1 0 0
332 1 7.5788571101641615 -0.14294993163655545 3.7035286585478513 0 1 0
2426 1 11.438848415429105 1.1081976003300738 2.4193035718574336 0 -1 0
2823 1 10.343770621493945 0.9045754840094045 3.972607093820213 0 1 0
138 1 13.414998369912613 -0.9008562187066053 3.3115375092672448 -1 0 1
2104 1 11.501844083065864 0.0810301592509095 2.0110379172485704 -1 0 0
3910 1 14.261701430659263 1.3509737517305513 1.6638627714592094 1 0 1
1131 1 14.278263626785579 -1.1867381076921473 3.636030338499573 -1 1 0
967 1 13.782359853175562 0.7302409807331851 4.680248733465653 0 1 0
2502 1 -1.183937063554428 0.04205018421723716 2.8865202850278555 2 1 1
894 1 -0.6092301665878475 1.6016870185167793 3.6602946413739863 0 1 0
2470 1 15.045470076170698 0.7334597504518414 2.386307846803729 -1 1 0
1535 1 0.1744121402698695 1.998005260746007 4.124376624921052 0 1 1
2707 1 -1.1777952441273294 2.076457940735033 4.564647959512957 1 0 1
2787 1 0.9262983449401556 3.03386355028995 1.707435991211912 1 0 -1
3627 1 1.131486369446387 2.077750172930161 3.256782315107481 1 0 -1
3010 1 0.033676171891640294 0.8596462819490513 5.46733724878352 -1 1 0
2474 1 2.7393872618585533 2.145093631066683 3.380980898887983 0 0 0
1289 1 1.7466451443698707 1.9051606416827624 4.101294596111624 0 -1 -1
3420 1 3.0688622588416825 2.7620136072610038 4.356219479859626 -1 0 1
1174 1 3.756652130511392 2.5189041824700475 3.1246762087890554 0 0 0
3103 1 3.2078177611839527 1.900538084468998 5.0040353663975425 1 0 1
1866 1 5.44525130148244 1.7669368348932983 2.286549814861666 0 1 0
3685 1 4.294577616524515 1.7669142117893446 4.35575279903034 0 0 0
2519 1 5.99774234202868 1.8020819449011807 4.8511913116667795 0 0 0
2591 1 6.172857946040349 2.3500162931635393 3.846237282171873 0 0 -1
2112 1 7.084649238554473 2.923303031258568 4.243062510783007 1 1 1
3486 1 7.929037499674466 3.3184130546433117 3.2398950987042614 1 0 1
2072 1 8.891366587344528 1.4968591793157455 3.074911042602669 0 0 -1
1446 1 7.380422462736137 0.7010772255368782 2.826353158393398 0 0 1
2246 1 9.985795085530965 3.067324979632314 3.818506587669358 0 1 0
1279 1 11.986113467270323 1.0224754952763244 3.6887199885400115 2 -1 0
3065 1 10.854440120533203 2.0779963360084146 4.0795496280232815 0 -1 0
234 1 11.343590276024736 1.7949352233092273 5.989321292892849 1 1 0
930 1 11.893871656654655 2.0173505989336142 3.490132025217396 0 0 1
3918 1 12.678799849271636 -0.16178602550368626 4.298654194859558 0 0 1
3488 1 13.26172092260877 2.260927798545112 1.8694229110783551 0 1 0
2521 1 13.379570675490767 3.292064705831855 3.845460761805148 -1 1 1
1787 1 14.323570138083735 3.976421921058714 2.966532714711117 1 -1 0
1661 1 14.552040741678118 1.157286521268603 3.225292922660697 -1 1 1
753 1 14.146340427902473 3.957117535968469 4.043358108799549 1 0 -1
3052 1 -1.107979708724349 1.7928769699646399 2.494236485811033 -1 1 1
1776 1 15.145291897630056 2.6789795649375177 1.2081710358263749 -1 0 0
1024 1 14.73641939644406 3.064777481950693 4.347258337824548 0 1 1
690 1 -0.31364194121788347 3.652620320918502 3.1755722041508774 0 0 0
3565 1 -0.025135970524399642 1.9855097993997557 5.398698841761423 0 0 -1
3697 1 1.7757441467605117 3.107673531621659 3.775638193585168 -1 0 0
509 1 1.9970261797379942 2.6094936382747753 4.837703148362135 0 1 0
3144 1 2.973493779981264 3.1740974904718637 3.043016972575428 0 0 -1
1161 1 2.449425304755106 2.5529103757707663 5.796461132739647 -1 1 -1
1681 1 3.816740758375774 3.551287130981299 3.6958270767878014 -1 -1 1
380 1 4.33008428910306 2.166504390583292 5.372534840506776 1 2 0
80 1 4.294133437653283 3.1856604870716385 2.6839846817202577 1 1 -1
484 1 5.644306224226278 3.245213510841202 2.9253384700282723 0 1 0
877 1 6.990363065436222 2.9021009281041605 3.101295480811368 1 0 1
832 1 6.20829121475606 4.309882465321805 4.386724656224186 0 1 0
1728 1 8.368742989535619 5.510434854046811 4.151524035258386 0 0 1
258 1 10.451602345586107 3.909517766393453 3.786978469947317 0 0 0
2540 1 7.16388805424655 3.8613082549591464 3.7660199740653004 0 0 0
1621 1 10.23902445495794 4.684306934507987 2.9905049857299932 -1 0 -1
2729 1 11.802767035106616 2.3474321888532215 4.568300970702542 0 0 0
2448 1 11.291875202266201 4.583837905917096 3.3641545345678034 0 -1 1
1899 1 13.900782261230992 2.0369562860011574 3.6997645035207114 1 0 0
256 1 12.897329257115409 5.6508607726041165 6.412939238162923 0 0 0
1471 1 15.194500484389895 4.251667945174915 3.6860941346634375 0 2 0
1559 1 -0.3409773222790673 4.7566854738013395 3.459260621639377 1 0 0
3879 1 15.557055006305092 5.635906812121765 5.751184952345819 0 0 -1
2355 1 15.277540637460149 3.982542481376643 4.5918727311622165 -1 1 0
3282 1 16.18410168694037 4.322711651293526 4.992412531279705 -1 -1 1
2086 1 15.76536317381855 6.44513606285046 3.2099629189646697 -1 0 0
1136 1 -0.6351078107758338 5.8190008859635185 3.3585743301723 1 0 0
855 1 -0.5711304275952145 2.8130328631546657 4.241048142624293 1 -1 0
2133 1 1.575157153007741 6.6505543540527805 4.17971367576137 0 -1 1
3388 1 -0.16955880535228918 4.537947308531103 2.401998379642723 0 1 -1
2986 1 1.0501995085682845 3.8726754063859117 3.16946951417059 1 0 1
1 1 0.46636807915139467 2.981001263320084 3.5523205972791683 -1 -1 -1
1809 1 2.402754975285643 4.471550495696227 5.402404411104263 1 -1 1
704 1 3.1259599522630923 7.028684327378876 4.387575229415725 0 0 1
944 1 2.3045694992650416 6.189037937463407 4.761859254900799 1 -1 -1
2578 1 2.834180114099653 7.6870636235725165 5.252133495474299 -1 -1 0
3431 1 6.412102804307291 5.802747815902643 3.4404840225391027 0 -1 2
1111 1 4.963276291674324 3.492381198810447 3.8375026829772967 1 0 0
76 1 5.805782026094611 4.519953727363594 3.381672133970043 0 1 0
3288 1 7.6136363975672126 3.9536917628466623 5.301501405721839 0 0 1
2339 1 8.641898743929875 3.6316516148915374 5.535453255189205 0 1 0
2929 1 9.506408430638425 5.247512450218526 3.6897522363837307 -2 0 1
3399 1 11.321268374575624 6.198317864794354 3.6046346498985153 0 0 0
1184 1 11.53584455109185 4.932410214505995 4.758526818193184 -1 1 1
544 1 10.693151454871995 7.237813559689846 4.27607025430607 0 -2 -1
3575 1 12.225796555333966 3.4858441602120447 3.169375907161905 -1 0 0
1754 1 12.11222266853908 5.944431263869983 4.500115348886124 1 0 1
27 1 13.25719793325397 3.9757756733087763 3.0798880375395674 1 0 -1
2497 1 12.245563026641635 4.544033815650941 3.256602519566404 0 0 1
1500 1 13.508249836874947 4.314834135021391 4.835617251007617 -1 2 0
827 1 13.633004954420462 5.434854878301063 3.108855362170652 0 -1 1
1711 1 15.752140719152504 4.939905660652256 4.310631396857146 -1 0 1
2349 1 13.540075222732803 5.259963359654329 5.217463788914452 0 1 0
1975 1 14.864617728961637 5.317752677304192 3.5987201779760873 -1 1 1
3050 1 15.329903783114109 6.249186002432831 4.219462597555172 -1 -1 0
2165 1 -0.4506492369164302 6.655142529578381 4.0524604356113825 1 0 0
2788 1 1.8415468007577571 4.720569023825638 3.9193578860230414 1 0 0
654 1 1.7956983274421936 6.5903268912488375 5.701263046263282 0 1 1
309 1 0.8238462041276171 7.182906570491019 3.594892234573951 0 -1 0
3230 1 1.0143754410789478 8.023248802708295 4.29659111906234 1 -1 1
2066 1 1.2449026576215445 7.627124791694319 6.00235318630495 0 -1 0
471 1 1.3683522718317258 5.352014408544139 1.9973637230215573 1 1 1
1753 1 2.2187212907169007 8.415699277506164 4.585282179596106 1 0 0
1300 1 4.088706952899967 5.716224875441439 5.531472672892064 0 0 0
1522 1 4.511829952559618 5.5246676841013995 4.606977439896598 0 0 1
1173 1 5.106011572274924 5.326377942286253 2.5911348601737605 0 0 0
3723 1 5.013341862790858 6.793674802263913 4.4681664937888295 -1 0 0
1407 1 6.848021326473031 7.804387647776775 4.394491025832764 0 -1 0
2638 1 9.303295100580467 6.466852658509181 4.004397190507409 1 1 1
1488 1 9.52963560885589 4.309091383641111 4.177756221128126 0 -1 0
619 1 7.303628381496125 6.429430684693328 3.042777993449735 0 0 0
3870 1 8.5458648208535 4.587156437707194 4.597437215259445 0 1 0
3051 1 12.031510505782588 6.851783855273682 3.0983920804361738 0 2 1
87 1 13.166944176126261 4.833205551184845 3.9163201874258773 0 0 0
3963 1 11.930781508300907 7.922670588662957 3.2300625563212115 -1 1 0
3902 1 12.399274834179598 8.163946008169107 2.0201096884671834 0 1 1
2266 1 13.097436287361496 5.814730535150487 4.360394260646534 0 2 1
3643 1 13.770676220498535 4.713300187135822 2.428033807301495 -2 1 1
501 1 12.944556269246174 6.703510059556882 3.8474992440175217 0 0 0
808 1 14.500100477959638 6.953184030806547 4.456649009017581 -1 -1 0
259 1 14.212937549820698 6.168870630275802 3.5870620719024533 0 0 -1
1940 1 1.2428555571065205 6.338219286379298 2.3846575878638685 0 1 0
652 1 1.5597791027862509 7.126095145732773 1.7170285028279952 1 0 1
98 1 0.49863364411479694 8.784361482062765 3.918123454169013 0 -1 0
58 1 2.284310350071327 8.792395845667977 3.5106126332682503 0 -1 0
1544 1 3.675057138721317 7.811838924485238 4.436394781545959 0 0 1
3716 1 2.270746004386755 7.6108082542410855 3.8960780740935377 1 0 0
792 1 1.4708510360850977 9.429968151684195 4.838210901248347 2 -1 0
519 1 5.151744221544602 8.327811141752695 3.530131681794394 0 0 1
1584 1 4.6940570208932035 8.247749445035245 4.441686580668884 0 0 -1
3827 1 3.369470998976336 8.85020166552286 4.087232916628623 1 1 2
3517 1 5.008410521992888 8.027313842446478 6.451312219973361 0 1 1
2784 1 5.765144400800341 7.785002357294058 4.310311783979622 2 0 0
1527 1 6.4872117397265034 8.248486487758495 5.218309727444817 0 -1 0
1892 1 7.207348170189636 9.508229671092348 3.683956198884607 -1 0 0
2824 1 8.898241956621984 8.163882210517523 3.863620867650927 0 0 0
3035 1 8.770236727782606 8.58277261864002 5.588339046806992 0 -1 1
1164 1 9.064979594007765 9.117664575024534 3.9862281678667397 0 0 -1
2428 1 9.356526262909213 7.627020462826028 4.635237630719316 1 0 0
3887 1 11.032711646499678 7.754362271866416 5.52351079174786 0 1 -1
2651 1 10.215742732163807 8.213441225729598 3.2433206026369312 0 0 0
3710 1 10.98869435460969 8.277288683387622 4.472614599658934 1 -1 -1
716 1 11.585590504134444 6.614044694440317 5.27494504666576 0 0 -1
3303 1 12.042783274836651 9.187899524154327 2.868727770934955 -1 -1 1
296 1 11.895593502604605 6.969540158355127 4.1650248022740275 -1 1 -2
1101 1 12.944118224837347 8.457699999723294 3.1240204838122008 -1 0 1
1371 1 13.645425622882723 7.790732273966125 3.4089050226439364 -1 -1 1
1406 1 15.126915430705008 9.734222455650052 5.347659422449086 -1 1 0
2348 1 -0.009868622428973906 7.845882432152566 3.8369369778042293 0 0 0
3766 1 16.175183372967783 7.207649742535391 3.869409668171845 0 0 1
168 1 14.744462109110575 7.770062743193101 5.142682117345263 -1 0 -1
2715 1 1.4908633327604526 9.562578340880506 3.746282725454301 1 0 1
2832 1 0.2694641924831469 9.982136317431372 3.76240491501465 2 -1 1
3502 1 -0.12124117864643402 9.558305258071291 4.768429935818431 -1 0 0
3700 1 0.7755186459254793 9.735544442668699 5.5424117552813845 1 0 0
1701 1 0.2940515572793929 9.875098655780658 2.702934787296555 2 2 1
1047 1 2.5915670507372663 10.356665537068693 3.2467132967451455 0 0 0
1092 1 1.861430426680859 10.62248261057368 3.9298736841022874 0 -1 0
2858 1 2.307779360245764 11.78918971632862 3.771272182035455 0 0 -1
530 1 4.259198071148619 7.894777206529245 5.6559678997281155 1 -1 0
371 1 3.217577293665217 9.904425616933727 2.494641576622957 0 0 0
891 1 2.123089928082139 9.193967974490779 2.547628569178693 -1 -1 0
1574 1 5.108691187146407 9.695372823825881 3.43357734553749 0 0 1
1945 1 4.7658717717324315 10.103490439361883 2.1091618874831184 0 1 1
2935 1 8.041996749105314 9.0532546764408 4.475483146347647 -1 0 1
856 1 5.780859238048191 9.738605909473186 2.6177969100886016 0 1 0
493 1 8.209890301959188 9.770819414632449 3.7253913623236254 0 -1 0
998 1 9.89882711693715 10.290034421267318 4.544716173489111 0 1 0
771 1 10.334071715683901 8.445883439626714 2.2049346124191334 0 0 -1
2096 1 8.960922409229232 11.334872915550186 4.383173603476083 0 -1 1
969 1 11.031561809339125 8.876775713896086 3.3759200813062495 -1 0 0
238 1 11.95219530460923 8.621908758371207 5.827407354210949 0 0 0
2731 1 10.82853005844806 9.82597358958954 4.945107572038245 0 0 1
3239 1 11.656153201277316 10.759437190324512 4.5126311677865125 0 -1 1
2064 1 12.858261016173376 9.383625210554706 4.104734407073529 -1 -1 0
1230 1 11.988169369219445 9.61827520396565 4.850102337767245 0 0 1
761 1 13.665538722960532 8.585125797369106 4.277742674774567 -2 1 -1
2563 1 14.31061822734032 10.065032016475264 2.121037639999485 -1 0 0
83 1 14.126855495562575 8.990171928184182 1.794816033248038 0 0 0
3227 1 15.524613661792518 9.370779313805128 4.116262636217028 0 -1 1
420 1 13.201254536759729 10.619776970194993 3.133377487318185 1 0 1
2170 1 -0.9622245092997492 9.8451186213838 3.970584464013508 -1 0 1
3504 1 0.3252690011781483 8.424256216140803 2.204065835937609 0 0 1
1555 1 -1.1172053503794879 12.701983889797742 4.924336745588951 1 -1 0
1352 1 -0.07789516555806575 10.768813519574154 2.1129695611065036 1 0 0
3956 1 -1.0598324819232112 10.989192172186895 3.802228316070112 1 1 0
1014 1 1.5231687374549563 10.269384520258978 2.9277731132649087 0 -1 0
269 1 1.8972367777131645 11.508552573357028 2.7531543540261953 0 0 -1
1777 1 4.921363121264665 11.42207903097052 1.4773034501378999 0 -1 -1
1274 1 3.3686757145104202 11.86787472816948 3.1006548662661535 0 -1 0
620 1 4.390571436038678 11.215062125865312 4.0895867717038605 -1 -1 -1
3735 1 3.068755622731988 11.040562059190481 4.3276627153479605 0 0 0
2082 1 5.55633853234005 11.90657771680324 2.4439832282148144 1 0 0
2324 1 5.34987121712017 10.66770032052008 2.952486133522539 -1 0 0
496 1 3.885190808600531 8.814369820731432 5.200838718782293 -1 -1 0
3824 1 7.995311615219904 11.889902674617966 4.379004836614169 1 -1 0
3022 1 5.410541052908762 12.807420412398237 2.950162739833603 0 -1 0
1242 1 5.977469116470703 10.55905435523448 3.79578020457276 1 -2 0
2706 1 8.086341008287285 10.852830192480225 4.733442795703276 1 0 0
687 1 9.501498447589139 11.464881137085602 3.4677727397284226 -1 -1 -1
3802 1 9.053311264953278 11.229838726074432 1.7457956760680169 0 -1 -1
1756 1 11.045754313709402 11.931700194292473 4.602249191516262 0 0 0
3281 1 10.522402133103357 10.913843363596204 5.128739462070184 -2 -1 1
3615 1 11.024032940675465 10.326419880959023 3.8049833741675476 -1 0 0
1712 1 11.834113769145416 12.149163216674951 3.899962369255669 0 -1 -1
3018 1 11.970342167540432 9.649013317341678 3.8011232041373493 0 -1 0
3628 1 13.296207748014462 12.017216411111981 6.05683274107653 -1 1 1
2550 1 14.799216946151766 13.270538635899204 3.0725055181776373 0 0 0
3801 1 12.843220317069475 10.514553607149493 4.534777620793725 -1 0 1
3177 1 15.731616502258657 10.360555650536213 4.463652772168789 -1 1 0
2643 1 13.070344549642938 11.457055747945047 4.034292958974888 0 -1 1
3594 1 15.3576652321928 12.308453749575538 2.4735504761808524 0 1 -1
611 1 14.528078599340555 9.444138927350723 3.843151742801182 -1 0 -1
1288 1 0.3451834780636207 12.336542100862358 3.652965114860172 1 -1 0
2968 1 -0.14954458004818583 13.14897018270308 4.105074858702116 0 1 1
1563 1 16.224324996037783 11.557660324475531 5.373497502370007 -2 0 0
1155 1 0.8386538032051192 10.8963872856357 2.4283912301121577 2 0 0
456 1 0.21907403386523328 11.097689747484408 3.4816683721855366 0 -1 -1
3896 1 2.494133071262157 13.52175301915891 2.8849441028071716 0 0 0
1897 1 1.4875936474223965 12.417256646578595 4.254665422276573 0 0 1
1027 1 2.612445406502896 12.183567205498594 1.3154808805026414 0 1 1
1891 1 3.628651317156666 12.727533819431121 1.6161617954921579 0 -2 2
2350 1 4.404114336258536 12.445658262433575 3.030036025695173 1 0 0
879 1 5.141027881462894 12.479705556008199 3.9091739112062447 0 -1 1
3721 1 7.170851923621388 14.742602534642252 3.977906663685383 -1 0 1
2859 1 4.8552244757905285 13.522305327161293 3.5217154641318693 0 0 0
3121 1 5.976191409485035 11.092633656780912 4.732880693785819 -2 -1 0
2134 1 7.1722304710483105 12.140947877245413 3.7694763923428205 0 -1 1
2054 1 10.378389138147666 12.81943239715328 3.818537871163657 1 -1 2
2483 1 8.328893600201853 13.42515145961889 4.446955876501295 0 -1 0
1810 1 7.194987566148312 13.491547667832194 3.4580882742058856 -1 0 1
2337 1 11.261309577487959 11.53345749279718 5.497359955967285 0 -1 1
1916 1 12.50184664614505 12.272469089662458 5.376685514884028 0 0 -1
2308 1 15.53709024876644 10.674472850742388 3.2516669992404044 -1 1 0
352 1 12.607959188188696 12.77644445933138 2.382328636645712 0 0 0
2163 1 14.542227486521881 13.29155776807154 4.881679085994989 -1 0 0
1794 1 16.014447291585853 14.3715008008097 4.237790693803917 0 -1 0
2487 1 13.831995046756202 12.2010403822756 4.041011062763053 0 0 0
2660 1 14.605580036918157 12.369980297032056 4.745720563189522 0 0 0
1421 1 -0.8515389102605824 12.239670854113545 3.899566990597994 0 -1 0
2055 1 -1.2900050846840676 12.588851848210801 5.973767404026098 0 -1 0
33 1 -1.0196871888149655 14.900950899284183 2.625031837240098 1 0 -1
2171 1 0.7504817431175486 11.8971228877407 2.739835970952919 1 -1 0
630 1 -0.8855313830695413 14.616878572552944 5.219064807774067 1 0 0
3291 1 0.8399187752488708 13.32772760583807 3.5861862789045134 0 0 1
2741 1 0.13760754598109237 14.478880928854757 5.2469469993311275 0 0 0
3606 1 1.1763419954868657 13.49986862148549 4.6569731058994615 0 -1 0
2589 1 1.4927540485227322 14.491945809302573 3.093991319823738 0 -1 0
2060 1 2.0353674624761724 13.683342433832662 4.011022248652175 1 0 -1
455 1 2.545515160093031 14.352716529460615 3.4300683691641423 1 0 0
3150 1 2.219944253071424 14.77541925391019 4.358016761668596 1 1 0
2602 1 3.523879393617576 13.788432679437694 3.499227749503244 0 0 0
2286 1 3.3039039949241094 14.355186870705365 4.388855507765475 -2 -1 0
2381 1 4.285409455298806 14.41300337218792 3.0792520843080604 0 1 1
2659 1 5.189970216725876 10.958394265629273 5.326555566513577 0 -1 -1
893 1 6.683519676073802 14.393261040088747 2.214214179782371 1 0 1
2363 1 3.8817071436123625 12.954397044894991 4.024796670237665 -1 1 -1
1553 1 7.289124928296841 13.075258243026814 4.668636783272927 1 0 0
542 1 9.472492570609903 12.469781222816248 2.9487115827278636 0 0 0
2027 1 10.114209051045938 15.110110734431046 5.398926757395113 0 0 1
3719 1 8.046167682677767 14.685186377278418 3.5662515436084874 0 -1 1
553 1 8.85747183256502 14.341655791475876 4.099908810430792 1 0 0
3145 1 9.785626770159093 15.297096173577035 3.0737052104181295 0 0 0
233 1 11.453188740545102 12.765813975345814 5.08243482701131 1 0 0
2015 1 11.037654653985973 13.759783282507602 2.15359165432636 1 -1 0
2569 1 10.305923632726486 14.128385456801945 4.4463607412297215 -2 0 0
2543 1 11.003045024389348 13.548835986885834 3.322660801157343 0 0 -1
2501 1 12.762583879362348 12.664876590361649 4.032443406618535 0 -1 0
3973 1 13.683817517868592 12.930257517235804 2.670717129965676 0 0 0
3205 1 15.272186799373763 13.65845026488134 4.149897151694936 0 -1 0
71 1 15.936473786624092 12.934295604210051 3.1459428467401827 -1 -1 0
2786 1 15.300741271401236 14.043664715156204 5.126425011173004 -2 0 0
938 1 14.024929280604356 14.548222973154651 4.245476251753042 -1 0 0
3828 1 -0.5410936039930463 -1.1339093483243694 4.473742285148612 0 0 0
1325 1 1.5542070377764867 -1.0595298977959748 3.240891803060726 0 2 -1
3432 1 0.507192449958346 14.507416900256462 3.7564594409260907 -1 0 0
1343 1 1.5732380424206505 14.230627315416376 5.342834808564925 1 -1 0
2392 1 3.1253193497619414 16.099793743098854 4.608804366841837 1 1 1
566 1 2.9704636692613873 15.465794140768502 3.715129679529543 1 -1 1
3868 1 3.500517115626625 12.965424341304418 2.739800725508072 0 -1 1
3273 1 3.857194838033637 15.150040611209672 4.004346204237035 -1 0 1
2014 1 4.629832582216933 0.22705104172716095 5.228428215405803 1 0 0
3132 1 5.539361362363543 16.057986166793285 2.698396870077599 -1 0 1
1361 1 4.695324901955534 15.825777365202452 3.395395592817887 0 -1 0
3945 1 6.05892308747707 15.598655552811131 3.4336268739140605 0 0 1
3608 1 7.007987773374348 15.12644068606754 3.064562484484113 -1 -1 1
93 1 7.137655470526438 -1.270602456946328 2.540959815769892 0 1 -1
592 1 7.924971107045126 15.705692764683828 2.7298803724732865 -1 1 0
920 1 9.627312748425423 -1.2259300339052992 2.7301942993839408 0 -1 0
2700 1 8.432971410066044 -0.19906700816327016 4.362410413964635 0 2 1
1610 1 10.682674829147738 15.340179112716172 4.117584397005936 -1 -1 1
2574 1 12.651837204967388 -1.271778255627416 4.083127646004343 0 0 -1
139 1 15.099484916951997 15.630635761201074 3.6999868617504212 -1 -1 0
294 1 13.068514603313503 13.720517081918063 3.1891175528398277 0 -1 -1
3772 1 14.724871951396146 15.899631821075083 5.4190881347273985 0 0 -1
2837 1 -0.23247493208039227 13.996751998240292 3.114869390390317 1 -1 0
3092 1 15.678484274804209 14.896859723516073 3.145454962283445 -2 -1 0
336 1 14.99309551886861 14.707678765257889 4.4159964591923515 -1 0 0
2789 1 -0.9665829331290059 16.185920863224805 5.886095872790022 0 -1 -1
451 1 -0.9735141528085451 16.12254418643144 8.321008928872423 1 1 0
3172 1 0.9111864456063792 15.943266556871311 5.704133551376863 0 0 1
1449 1 2.664038346132229 -1.0266534403991634 3.3373026206606786 0 0 0
2010 1 1.452573271711676 -0.2502667030621213 3.841200015304435 0 -1 -1
594 1 7.063959976816124 1.6018923608901963 4.223636031549824 0 1 -1
2852 1 3.4131336683535105 0.5433831595368752 6.152872947031828 -1 1 0
1255 1 5.485416286508699 0.6750245856911123 5.964118718296717 1 1 0
3530 1 5.730006997260026 -0.2628420369678963 4.829032194041884 -1 1 0
3491 1 6.718591081965286 0.04695091401696283 4.191801091416277 -1 1 1
402 1 5.402161728021272 1.0881082299186255 3.0570050674386495 0 0 -1
1708 1 9.574480192483092 -0.5372351068443406 4.773283372745842 -1 0 0
3807 1 8.049671936341197 -1.1373612948730791 5.088876463163369 0 0 0
2598 1 7.569560905221323 1.1103200610563024 5.786102488361697 1 0 1
230 1 10.404512843631649 -0.502887449639481 6.23988994695323 0 -1 0
29 1 9.946638461149435 1.6900124286540774 6.796270259651267 0 0 0
1763 1 11.819331745182078 15.618914276972294 4.301340656692613 -1 0 -1
1295 1 9.951251633564544 0.2922156258489734 5.443747398220361 0 1 0
3620 1 11.43147163855824 -1.1495854221861497 4.927078581306896 0 0 1
2755 1 12.663632696731463 -0.646215379853012 5.332043134344489 0 0 1
791 1 12.788104083105182 0.6461055401580811 5.209815101431839 0 1 -1
344 1 13.292516486367305 15.650631312776898 5.539787769362714 -1 0 0
1277 1 13.891279393917873 -0.81747980986221 5.312855598154286 -1 1 -1
65 1 14.395840361882412 1.654952587467183 4.525399624096273 0 -1 0
130 1 13.14126577053206 0.3508657580668064 6.530295336445454 -1 0 -1
2645 1 16.167460636099978 0.08982907680930174 4.804410959302302 -1 0 0
3023 1 14.854045131866005 -0.7398000815698972 7.370832002400027 -1 1 2
1050 1 13.857215578632287 0.3435923973728865 5.754194785424435 0 1 0
1465 1 -0.8882670867805498 0.548644471390753 3.9383505084020385 1 2 1
2705 1 15.345972532857353 1.825245568352948 5.731736207591364 0 -1 1
216 1 -0.3332950699462337 -0.06385367690790389 4.790111584153665 0 0 -1
1086 1 0.5761925813550013 0.30103212161749804 4.033576435451284 -1 1 -1
1616 1 0.6217154994835841 0.07459702871758811 5.514713585867778 1 0 0
147 1 1.0039419000891674 1.3250134542175922 4.550822574534515 -1 0 -1
904 1 0.8400234669601829 1.4433558625779273 5.959951052824615 -1 0 0
991 1 1.4830266261224034 -0.6153522515696279 5.9504359387687495 0 0 0
1201 1 6.139331243349718 0.7411926395662798 4.724587539849681 -1 1 0
2699 1 3.5951749515786435 1.5713540778445134 5.947640339114805 0 0 -1
2809 1 6.0297070036306835 1.3329055768124758 3.8295060154053804 0 -1 1
390 1 5.071060675574752 1.028809370205574 4.088400838233089 0 1 -1
609 1 6.349868227824726 0.32088471903570714 5.744219108877696 -1 0 0
655 1 6.988673402159813 2.1154633218588503 5.1030062623700765 0 0 -1
3320 1 9.20022532911841 0.15969127901629143 6.226157751692246 1 0 0
257 1 7.434722914992173 0.5013872433553135 4.768062866424653 0 0 -1
1647 1 8.437004285034948 0.3302916088798675 5.259552604358717 0 1 0
3813 1 10.658322314769872 -0.3617881251180165 4.911780432222399 0 0 1
72 1 9.248447880061962 0.26954295119554117 7.3023832652082135 0 1 -1
824 1 11.832511200989353 -0.8179381425925658 3.5906949661878897 1 -1 0
886 1 12.390056478115241 2.1432179242537086 5.482199955860352 1 0 -1
118 1 11.388823292418692 0.12171684233442304 4.090532813339041 1 1 -1
3242 1 11.89292505551907 0.05760619169842296 5.086118933211558 -2 1 1
1389 1 13.637385844815327 1.192140720204284 6.415886370890366 0 0 0
412 1 15.453948688760853 1.2272934415597603 3.974295908464981 0 0 -1
724 1 13.32976353458152 1.1334467179839063 3.5222134548816078 -2 1 0
2076 1 15.22205946757732 0.6714777915488981 5.17444701614994 0 0 1
1089 1 14.479955097476822 1.356742871771778 5.458118453616911 -1 0 -1
1484 1 15.211108605405748 0.6546728708148595 7.443253339841599 -1 1 0
195 1 -1.0689238243204304 1.0451594148847274 4.846043939726288 1 1 -1
3417 1 -1.148429568787005 1.8980113593146895 5.572271719432479 1 1 1
3991 1 0.8983630133758278 2.2534676578685757 5.0069444300444 1 1 0
3149 1 2.266607738077675 3.5817056722880816 5.876020641906656 2 1 0
546 1 1.7758417369186197 1.5597650126453044 5.39767574537459 0 0 -1
2026 1 3.1547761250722104 2.4078780838738996 6.541749384992229 1 1 0
1351 1 4.849577227985034 2.7143352260616904 4.506824543041999 0 0 0
1134 1 4.9487085912053175 2.2762496625390214 3.117302007927603 0 2 -2
510 1 5.3626541561902865 1.8178532640382676 6.20687595918768 0 1 0
613 1 8.088073488986696 2.194917169414862 3.600694615323979 1 0 0
1258 1 6.0019919789396825 3.3565680476602884 3.996720893256401 0 0 0
353 1 6.190322090102643 2.777812301471383 4.945200976659938 0 2 -1
748 1 6.683722660225692 3.697791885857253 4.93737915772196 1 1 -1
2202 1 9.31795552610844 1.2941625731827302 5.9909082168639065 -1 1 0
22 1 7.9335400431745455 1.0622465909003371 3.7886606417054702 1 0 0
1370 1 10.124591946529636 1.431100047610299 4.801060851963843 -1 1 0
721 1 10.206525604044424 2.6260840799808727 4.960892574653613 0 0 0
3154 1 11.554141535153175 2.9462928585987873 5.5726046614672775 1 0 1
3707 1 11.16724531820642 0.9189817943608545 4.780378407841123 0 0 0
2373 1 12.824414583430704 2.1959180210496796 4.0161083067594525 -1 1 0
1912 1 12.362660854781401 1.3259146493145715 4.710208008763887 1 0 -1
1988 1 15.037784750594621 2.4200422964295805 3.6354554759569266 -1 1 0
1426 1 13.378859060257012 2.4906416140776817 6.012924648001302 0 1 0
876 1 15.719867812628173 3.174825773626604 5.958567092840555 1 0 0
104 1 14.67724249244039 2.839664117577331 5.3954055001096535 0 0 0
2839 1 -0.6815923302315264 2.9440301106369766 5.264807125387718 2 1 1
3046 1 0.35222329762907867 5.565434028177982 2.9964321434456265 1 0 0
3441 1 -1.012811609642582 3.8049217306361243 4.285342124159653 0 1 1
2382 1 -0.03198491484464361 4.018408950147022 4.228944297183839 -1 0 0
2634 1 0.29855083124969384 3.646295747070707 5.585253983073903 0 0 -1
1290 1 0.3310389372246112 0.4653476403832639 6.520078759762189 1 0 2
1167 1 1.1868838599075953 3.259720274941282 4.9507790653075165 0 1 -1
936 1 1.0536353297337073 3.842840687521255 4.1562253573292525 1 -1 0
1394 1 3.190403463862099 2.5530467976257576 8.046750981405339 2 -1 0
3319 1 2.2616552493539466 3.5782818529839986 4.797947984022512 1 1 0
2775 1 1.0502333267496584 2.5442596205331776 5.995890821703783 1 1 0
2398 1 3.599387278668585 3.0548955940299374 5.797895208784256 0 1 0
3325 1 3.269579831184747 3.6730330567030753 4.894549956133446 -1 0 0
2906 1 5.611454993341874 4.608085726548013 6.849757798437366 -1 -1 0
423 1 4.846769641992853 4.285256968853577 6.374036626937862 -1 -1 -1
1959 1 8.039942391366598 2.507775277654992 4.66243393258361 1 0 0
3026 1 7.382532134046372 4.953444235844215 4.633151745448949 0 0 0
194 1 10.462386898476337 3.171563337881879 5.986930846474025 -1 -1 0
95 1 8.032820245579073 3.585041334525431 4.373952745321913 1 0 -1
2174 1 8.293136895728088 2.986475903021751 6.401197234663594 1 0 0
222 1 10.43962006423036 4.41150694994935 4.702268817589544 0 0 -1
1287 1 11.930110327499076 3.8797825319254304 4.721011322410385 0 0 0
3389 1 10.008727556792342 4.5211480632334995 5.844844879038363 0 0 0
2593 1 12.230649478591712 3.641732504987959 5.78164137576827 0 1 1
2564 1 12.46479062268289 1.2351541288320962 2.3050656876149778 0 0 0
2794 1 12.984795133903189 3.6850170264817956 6.891315888938946 -1 0 1
2289 1 12.63904770092101 3.1560887025550004 4.818649059072643 -1 0 0
169 1 11.944190053465546 5.603571513631366 7.862566275389659 -1 0 0
39 1 14.43099612546766 3.913905905920484 5.12385799655055 -1 0 -2
3799 1 14.296307706590442 4.863329272293534 5.9672515073586965 0 1 2
2720 1 13.472294994755522 3.510682672767996 5.650021198399127 1 0 2
2109 1 -0.30542592137410196 4.387123732966988 5.248539369929423 1 1 0
802 1 14.532417153283971 5.575218227925291 6.7150958724844845 -2 0 0
3203 1 15.029479066277396 5.048356847585601 5.025375970769581 0 0 1
614 1 -0.40782579516514517 4.0421668633307535 6.2217532191915055 0 0 1
206 1 0.37900615057555886 5.139339939036418 4.986375178571216 1 1 0
2594 1 2.131819095748865 4.051621548083859 2.950416161562793 0 0 1
79 1 0.8565459782492373 5.551802184625753 6.028766644070397 0 -2 -1
2029 1 2.8076732575314285 6.77323860569995 5.671316683300814 0 1 0
323 1 1.4911805047309876 4.393087844600494 4.874441662453785 -1 -2 -1
2113 1 3.8805323195210564 4.534449104179965 4.402449803169088 0 0 0
533 1 4.370623624460659 3.768884891590565 4.940515104145543 0 0 0
2692 1 5.211185202378596 4.41381442282879 4.348616341145404 -1 0 1
1410 1 3.899551636233249 4.025792880910863 5.895934946039319 1 -1 0
3186 1 7.503765356734245 6.210504759334804 4.193808621815867 0 1 1
1641 1 7.52093273841963 4.2854300407740435 6.388240345132704 -1 -1 0
3568 1 5.785553440916122 4.931727340255923 5.210241355080678 0 0 1
3534 1 9.0792441729733 5.995838339193586 5.429394753074038 -1 -1 0
1875 1 9.035744544988068 4.50346818258561 6.35476183161911 0 1 0
3297 1 8.12943964643734 4.763187029497261 5.608169859281637 -1 0 1
2795 1 7.486943687105395 6.904289401382085 5.055470927529364 1 0 -1
1890 1 9.11473914368031 3.1480370669539246 4.527960700233104 1 0 -1
966 1 9.755782566488591 5.4462130379049825 4.663974819444798 -1 0 0
2796 1 10.001440599924509 6.663454117966529 4.785563334194586 0 1 0
3515 1 12.551923081940613 4.910405441718779 5.164338062080492 0 0 1
1864 1 12.9045970136042 4.500712340543441 7.793004951128639 1 0 0
1872 1 14.17253562754806 5.937462303442933 5.8384852695771965 0 -1 1
742 1 13.53709243624199 4.682644913291926 6.817138947754362 0 0 0
3422 1 13.612194819051307 6.942178049707046 5.5151840473973754 0 0 0
2229 1 -1.2454224047277345 7.408406939780084 5.325919533357515 1 0 0
1829 1 0.5511771074334246 6.767972302736679 4.482689212937341 1 1 0
3518 1 0.7427529726282724 4.873691222645111 4.038443741586273 2 0 0
2242 1 1.049249449505845 5.963744170894666 4.92286472721125 -1 0 1
3877 1 3.8483644900714227 6.994681067341569 5.190405020972395 0 0 2
3648 1 -0.12135922478816363 6.540100832672987 5.247393657150119 1 -1 1
915 1 4.592083275404398 4.433147009895897 3.566316963971996 0 -1 -1
1807 1 3.6064333839388887 7.302401047300107 7.502816018192814 1 0 2
3635 1 4.876260221043719 6.491270725659775 5.75538882399494 1 0 0
1733 1 5.723895141770758 5.467411172788013 4.348332502472512 0 1 -1
2390 1 5.744696274845531 6.08628604344354 5.245171086348085 1 1 0
1981 1 3.920160675674774 6.4653097710688066 6.552601866447517 1 2 2
3310 1 4.636014516339989 4.6359484926016545 5.2316136795807004 1 0 0
927 1 7.488061577763505 7.206309461970449 3.8039594630706537 -1 -1 -1
1187 1 6.669511283804778 6.013408210532108 4.802843600519542 -1 1 0
3670 1 9.254021699515336 7.004872079289893 5.45489872847102 0 0 1
2630 1 7.860171379092073 5.81824949005564 5.1693884891604736 0 0 0
1965 1 8.467823585171509 6.431002889601788 4.669302933868481 -1 1 1
3130 1 9.366834224148198 6.878640043328039 7.257043950111932 0 -1 -1
368 1 8.721327693696951 9.181733146732606 8.315221996078364 0 2 0
3460 1 12.490364181865466 5.711412333022951 3.2839681002798864 1 1 0
3468 1 8.222006009812747 6.7135423157572305 5.79385129423436 1 0 0
112 1 12.843595430368094 6.373077927221232 5.151603457198737 -1 0 -1
1586 1 11.6850984777194 5.214370420807712 5.955121054023801 1 1 -1
166 1 12.927333195506801 4.395649128472701 5.985228473174424 -1 0 1
2669 1 14.24876813258217 4.936378404695461 4.276232521773763 -2 -1 0
1010 1 14.12055736737487 5.951675614044432 4.771070195203432 -1 -1 -1
3387 1 12.92662644026685 6.790234348860151 6.280614114183176 0 0 0
828 1 15.1701575407392 6.533824768153911 5.362337385187221 -2 0 1
937 1 -0.8290510123273107 8.570594294157388 6.385228320145944 -1 0 1
3653 1 0.4567736341927129 7.637325162933591 5.030483379491746 0 -1 0
34 1 15.46472403834159 7.276094010130388 4.679316379380048 -1 -1 -1
3122 1 -0.804811841831979 8.584280298326307 4.030393552741035 1 0 -1
3368 1 0.5406744428680681 8.813044676060926 5.039495087199404 0 0 0
2697 1 2.126147505037816 8.32726750703654 6.404811153899288 0 1 1
2518 1 -0.4147009184539182 8.379329784756257 5.319254129242918 1 0 -1
203 1 3.296735794977293 8.406097442556202 6.0580704390857685 -1 0 -1
3968 1 1.8895946458849657 7.369959895974267 4.9275958505571795 0 0 1
3850 1 2.4510003211300986 9.619236783293161 4.115188534753693 -1 1 -1
1353 1 2.3463209835293175 7.328645712551694 6.528774486524134 1 0 0
2719 1 3.1139698084940157 8.2668922837907 7.142188890601998 0 0 0
1257 1 8.310509678684308 7.5667796477713605 4.983883941147344 -1 -1 -1
701 1 4.041708986919605 9.031125923602294 7.395362493547106 0 2 0
2513 1 6.067694660909162 6.716613849451264 4.289257429187968 0 1 1
1090 1 6.02938240370551 7.953193584845309 6.059587260223784 0 1 -1
2387 1 9.762317311246852 10.012841591096725 7.271832334513935 1 -1 1
1261 1 9.870326667446264 7.978676051351439 5.380824673979741 -1 1 0
1617 1 6.642806258769394 7.166882396729376 5.477348336492776 0 -1 0
872 1 9.930806281692083 8.566811390447588 4.408857695787895 -1 0 -1
2196 1 9.14472520691711 10.391870185306908 3.4794093196653435 0 0 0
3633 1 10.871366491226516 6.102536479993217 4.533623276090754 0 -1 0
3463 1 8.503997548896647 7.492993246700445 7.311598953771583 1 0 0
2958 1 11.497042077610406 6.924876228094799 6.524751430803631 0 0 1
3641 1 14.62322102000367 8.120918900776633 4.155708894787939 0 0 0
2561 1 11.92801047747552 7.8519152847669424 4.846147776543305 -1 0 1
3659 1 11.944827544902104 5.661706961350322 6.851112693992263 -1 -1 1
3484 1 12.765390727729173 8.101894086734315 4.105885241074811 0 0 2
1100 1 13.362662093152565 7.803294878153958 6.342813495374452 0 1 0
3528 1 -1.1863200581277116 7.375135860275023 6.352971993308182 -1 1 1
1530 1 13.826686019015735 8.202498168466644 5.32684227861101 -1 0 0
2909 1 16.134182339608536 9.046611999521296 4.980597746114658 -1 0 0
94 1 -0.6502252588709971 11.370555667092713 6.419806247336369 0 0 -1
2046 1 1.201085961571425 8.687082139824708 6.416567195881034 0 -1 0
315 1 -0.2753524813215724 7.396345838634046 5.898013170356514 -1 0 0
1894 1 -0.4516181492573075 10.116124755624964 6.0939577982281765 0 1 0
479 1 2.275782277501633 9.115614603050272 5.544070457762627 0 0 0
1968 1 1.5235734979834406 10.737176958056777 5.15818913576589 -1 0 1
362 1 1.8292410780723571 11.274967183798147 5.9469580505439845 -1 1 0
1489 1 0.2963943994419005 8.303536509816848 6.2963910212515435 0 1 0
1123 1 3.326765527089127 10.128710436602303 4.313875496422595 0 0 0
2776 1 3.477667951333153 9.485519274713415 6.073689494533991 0 -1 -1
3304 1 3.4247989662778267 7.406936696171215 6.455253756031364 0 0 0
158 1 5.704740803444867 8.830038443319252 4.574325815493436 0 -1 -1
3650 1 4.417372144317618 8.80551186160666 6.2825430492520695 -1 0 0
310 1 6.140908093399808 9.176136692047724 3.50148113380789 -1 0 -1
3271 1 7.156067340943725 10.462432028575412 4.318759791577776 0 1 0
2918 1 7.733602573025486 8.75550074220359 5.511992043584645 1 -1 0
3886 1 6.165289267788329 9.837752740326028 4.630408336110034 -1 -1 1
2178 1 10.378521877403216 10.43360218234431 6.357482915657493 0 0 0
3019 1 9.450413232901946 9.30153019585346 4.950467851823299 0 1 0
3961 1 10.327721403209349 9.608733342975347 3.9337428803954753 -1 0 0
1286 1 9.55561594531681 9.735581947749193 5.94768542774044 0 -1 0
1658 1 10.510098048309475 8.543236484046059 6.058045111272049 0 0 0
3655 1 11.933244518770508 8.683720821287602 4.224165489032957 0 0 1
527 1 12.42882862371072 9.715836517638193 5.955752453425502 0 1 -1
3084 1 13.81175056055963 9.50450115440248 5.052108803445107 -2 1 -1
2973 1 15.640699633667982 8.11511856045881 5.736749096018304 -1 0 1
1666 1 12.679145146398847 8.756894553834176 5.124325791229131 1 -1 1
2285 1 14.47274233679705 10.5836521291314 5.0986148738044745 -1 0 1
2919 1 16.09657658460161 9.308975358989546 5.966368096261752 0 0 0
2821 1 14.866355432859248 8.754122750441283 4.992071575200636 0 0 1
529 1 -0.17727559713011654 12.204728101440843 6.065582422733505 1 0 0
1702 1 -0.1966790457113048 11.360571830938873 5.472742587828332 1 -1 0
2654 1 -0.12813953674116685 11.620694987713694 4.439952956578721 0 0 1
696 1 1.5429748676771227 10.053010658635955 6.1656580737768625 0 0 1
573 1 1.9410833059266963 11.563027822602033 4.6759022897727816 0 0 0
2101 1 0.866611320752249 11.53417614624539 4.800017503571904 1 -1 0
1797 1 2.542527533790888 10.258423886430688 4.973016924401285 0 0 0
3970 1 4.32996929289658 9.530876032724578 4.4250747248643725 0 0 1
1040 1 3.6306303177553687 12.065371742560574 4.535579358463149 0 0 0
2030 1 4.598025305707254 9.70126573743282 5.784537681867771 1 0 0
73 1 5.164995866030741 10.340174517178571 4.504633664653508 0 0 0
475 1 6.737797000128722 11.249956831707696 3.8255504158476707 0 0 -1
3095 1 8.447811769053015 11.432204059895867 5.669055671231564 0 1 1
3445 1 9.43569367831078 10.720836910354604 5.447625175215767 -2 0 -1
279 1 7.130618521110428 11.682719330495669 4.859605552746244 1 -1 -1
3934 1 9.176436055086715 13.355837243287587 5.80920099386776 0 0 2
3365 1 8.33797201995917 10.167121297008896 5.662691820784908 -1 0 0
470 1 9.606509697620949 9.899783578970629 8.27390158564764 0 -1 0
1698 1 10.275464006683315 11.484433220412617 6.18868278473059 1 -1 0
3342 1 9.598720780729966 8.653022101388508 6.565806885283556 -1 0 0
3790 1 9.231897290681392 10.828765214527914 6.467644739355865 1 0 0
2041 1 11.376073163858756 9.591100181647066 5.829876728063622 0 -1 0
2154 1 11.87204311994481 10.50538803828799 5.4539653510965636 0 1 0
2243 1 14.143321860896185 11.70019332310143 5.498008703878248 0 0 0
3866 1 13.409141925551593 10.528315780180744 5.406562858344963 -2 -1 1
2714 1 13.809692143402714 10.167350449217576 4.198623823924501 0 0 1
1239 1 12.743846929681833 8.61682870295095 6.854894925856911 -1 0 0
2772 1 15.568761295728752 12.466995823364323 4.2328217003076425 -1 0 0
478 1 -1.2162499511920357 10.125596506993167 5.260430796432137 1 1 0
9 1 15.162417168382074 11.445124810895273 4.4575168936142076 0 -1 -1
2181 1 -0.44108820624653733 13.203928261844412 6.225283816357486 1 -1 0
3278 1 -0.33363554055331424 13.37493759420736 5.111578783999467 1 -2 1
1055 1 2.2339006382658115 13.53315906246262 5.055690957196975 1 1 0
2761 1 0.47069589845731774 12.588110119124995 4.832893930509122 1 0 0
639 1 1.2129049015342996 11.455105682046812 3.560631638414562 1 0 -1
1210 1 1.5578154956374326 12.373084662191394 5.262625775733584 0 0 0
3762 1 2.7285278033908034 11.536179213160706 5.25311579540346 -1 0 1
1429 1 4.713543190965765 11.938942344085135 4.724871542931135 0 0 0
426 1 5.682648974734956 11.596012784140084 3.643495643771809 1 -1 0
2236 1 6.223249610385075 12.593081216867484 3.9751843388837376 1 0 0
1800 1 7.168525377476389 14.285815793684092 4.899383996211419 1 0 1
3548 1 5.065603408840387 12.90144841004069 5.998335488999293 0 -1 0
1285 1 6.092712638331485 12.632027083977722 5.260995762059753 0 1 0
2637 1 9.737081398392386 11.763133938013993 5.0037091245744625 0 0 0
631 1 9.45858933043636 12.116543107104128 5.88975038572149 0 0 0
3405 1 10.5224926121405 12.330181067803293 5.624329617586563 0 0 1
1653 1 11.797151427729865 13.244788566700771 6.019627887396489 -1 0 -1
636 1 12.541599027960087 10.714865661001864 6.252082881529826 0 0 0
1459 1 12.640925003057571 13.373744972561052 4.798015856319828 -1 -1 0
2482 1 13.16377674524159 13.329252424598055 5.94181596374028 -2 0 0
2453 1 14.044981265430527 11.282628719367066 4.415792531437907 -1 0 1
5 1 12.461259960089295 12.601987927641758 6.514576768247493 0 -2 -1
1130 1 -1.277206072197802 13.64735073637586 5.4259249956530535 1 0 1
3429 1 14.20009019364129 13.242019936386551 3.838558758161355 0 0 0
3773 1 15.490961785177905 10.799997642318875 5.490723784729569 -1 -1 0
1363 1 1.7611065907438364 12.600205156546588 3.319042266212983 -1 -1 0
2100 1 0.6273723694169935 13.82405263957518 6.423605911992111 1 -1 0
1604 1 15.665259299922962 15.339432514502334 5.340067972308581 -1 0 -1
3152 1 15.591094738923395 -0.9673268385787401 5.557087059150782 0 1 1
789 1 1.711170965396604 13.211342082653879 5.977729155420124 0 -1 0
2765 1 3.484111550252824 14.424541082474454 5.427847879974802 0 0 1
3234 1 3.1846601468242124 14.748131703668452 6.379187116358434 0 0 1
3254 1 2.6263000081147894 12.433089194445685 2.3873032744861424 0 0 0
2606 1 3.005990940907335 15.483177683352729 5.566373243445781 0 0 0
305 1 2.848058917469677 12.653194756350507 4.022488085391804 0 -1 -1
2791 1 4.96736979593317 14.743180659371614 3.9850060827141673 -1 1 0
3948 1 6.138186905206878 14.591938328253542 3.2468236397185706 0 0 1
1758 1 5.124454204092778 12.781379394339304 5.003893738324822 1 0 1
205 1 8.850892825514823 15.341288704150909 3.648721646345078 -1 0 -1
660 1 8.567008407568839 12.465909044572243 5.695813489805306 -1 -1 0
1893 1 8.194177221776568 15.111527701977984 4.631816063367399 -1 -2 1
3312 1 8.271501874466498 13.884134626065329 6.059519296908018 -1 2 1
2833 1 9.392757377425449 13.306066974929339 4.826981526021036 0 -1 1
1601 1 10.405112620721155 13.247267838630453 6.193072513676623 -1 -1 0
2829 1 10.05473385720816 14.02600542034619 6.695675427858439 -1 0 1
3999 1 10.439698421139928 13.139738415332356 4.8081897164109275 0 0 1
3396 1 11.479065095714201 14.267504287040492 5.989039405248316 -1 0 0
2166 1 12.254244129193832 14.906285170693497 5.253298644525398 -1 0 1
3768 1 11.58524682516279 13.854282957239214 4.884476831721368 0 0 1
3976 1 13.085948595044057 14.900135336472868 4.68091800941516 0 0 1
2287 1 13.540427315965179 13.837294057908409 4.985677741927672 0 1 1
2562 1 14.12651945571618 15.004405750846772 5.201860246366166 -1 0 -2
3861 1 0.23730160964362979 15.792236542280005 4.124623548502167 0 -1 0
2941 1 -0.6360633320369171 -0.40256831241994473 3.6824246122497373 1 1 1
612 1 16.078586211724875 15.545124943331246 4.24803823365638 -1 0 0
3294 1 0.8812581409320166 -0.8899046324409778 4.898076482059813 -1 0 0
3871 1 -0.050733745319957 15.565340570790251 5.343366116962975 -1 0 1
780 1 2.085621002717608 -0.8541483597848618 6.9918756129865685 1 1 0
580 1 2.183048335133647 -0.8408150054309823 4.295532880233859 0 0 -1
2773 1 3.9581823331295247 15.608255488147172 4.983163083222347 0 0 0
2124 1 4.0984784395213225 -0.823356795668069 4.76498608878461 -1 2 1
3347 1 5.235986569827815 13.995361464733753 5.20068027276129 1 0 0
2757 1 5.4115006168619075 -0.45097281146349744 5.80782098404972 1 1 0
3906 1 7.217259294564416 15.453927171226486 4.913850230002571 -1 0 1
3830 1 6.310402291809326 -0.9544711533652341 5.25910537662754 1 0 1
2330 1 6.844448333624463 -1.2001565502100218 5.989967688028056 0 1 0
3097 1 5.074290345476772 15.410802482583783 4.904044119886962 0 -1 1
2912 1 7.1700426829335235 -1.15228293653558 3.606351767492864 1 0 1
3669 1 9.382731345913204 14.424225217553815 5.075535937587692 0 0 -1
1067 1 10.238141915533713 14.11126773465051 5.684560282865893 0 1 1
173 1 9.182372024084728 15.462225164148808 2.1661134748398845 0 0 1
1793 1 11.10298298089977 14.841512387389479 4.961313102899576 0 1 0
287 1 10.976094503741297 -1.1622980640982794 4.013421918008139 -1 -1 0
2800 1 12.325897897085898 15.920861734386555 5.573445840419601 0 0 1
2114 1 12.311700050461047 14.459843313540054 4.257108351075489 -1 -1 0
2161 1 13.908642214875716 15.35087937756423 3.679163141564006 0 -1 0
2393 1 15.745189980549444 15.289528831395117 6.659296406171804 0 1 -1
2915 1 16.009900014013834 -0.8829334609067121 4.362080932569487 0 0 1
3695 1 1.1547705892685043 15.159182104606213 4.976328416734581 1 -1 0
1923 1 -0.48713076321470317 -0.05096995032065199 5.885610024023989 1 0 0
1269 1 -0.14463182715242984 16.096855992016177 6.478078137038534 0 0 -1
3467 1 3.0815650038408364 -0.5606699132974459 7.024578547474036 1 1 1
376 1 2.530894780002011 -0.4151674318142635 5.894288581875598 0 1 1
1933 1 3.4281625870700507 -0.279861130537971 8.284938924527546 0 1 -1
2538 1 4.3073376466880635 -0.1445491486837347 6.260435943548743 1 -1 1
1023 1 5.12811306254474 -1.2959257830677338 7.7867285213665145 0 1 0
520 1 5.180125041528267 -0.5100961510939885 6.979266829444306 1 1 0
1767 1 6.2570913597827245 -0.47129862209446716 6.483871261882676 0 -1 0
1114 1 7.441949286676374 -0.6850249858854037 6.935789088358522 1 1 -1
532 1 7.209700356808858 14.921595639118436 5.828664552048159 1 0 0
2820 1 3.977022463658969 1.075525048047976 7.042981645875306 0 0 1
1691 1 7.183354407273354 -0.8051762363853708 4.58103450009643 -1 0 0
2861 1 10.007183110718945 -0.5381632110488112 7.3367421330234475 0 -1 1
251 1 8.293290111046492 0.4499681399769322 7.805103153022671 0 0 0
1768 1 11.141409753922252 15.905338275300267 7.225082810043933 -1 0 0
1501 1 11.476259702660665 -0.9610915890711003 6.0619124352322515 0 0 0
316 1 12.52021331765241 1.2966451865559065 6.223896381737473 0 1 0
3354 1 12.001302124551566 0.031005858179703027 6.337856108213293 -1 1 0
3260 1 14.718421738818144 -0.1953290676436863 5.5640581821484405 0 1 0
300 1 14.59163828568653 -1.1346068034489818 6.4186125369340665 -1 1 0
1727 1 13.438337077994118 -1.183412186629972 6.2625639249904905 -2 0 1
1117 1 13.422095479847153 -1.1041640409372122 7.320724893244041 0 0 -1
3192 1 15.653681195353936 -1.1461093202017834 6.542128754389079 0 0 1
1162 1 14.157578675559925 16.20141099900142 8.049442349592168 -1 0 0
994 1 15.616684897328174 0.0978365021961849 5.964212602999783 0 1 0
1002 1 -0.7718855374956132 1.079258058370279 7.154134919046912 0 1 0
885 1 16.169448654367194 0.08108857296912442 6.934775599695712 -1 1 0
3079 1 0.5297349384157928 -0.7584616736464932 6.106405483603486 0 0 0
3246 1 1.4979536569889738 0.6704449287961931 6.370514233434541 1 1 -1
2260 1 4.120079480654616 -0.5738685939052603 7.23801448623405 0 0 -1
3793 1 2.1179657250144257 2.597039388709292 6.6962286435482685 1 1 0
809 1 2.6183447556751758 1.1843662159962554 6.454978197833 0 1 0
1467 1 5.080893630679491 0.6768727596646358 7.021209642277428 1 2 -1
2090 1 4.284127470731161 0.30916034864098574 7.658292860243105 1 -1 0
818 1 3.928686847276123 14.822012214990124 7.9727923283499 0 -1 0
2205 1 5.309891179616995 3.1604787620128496 6.734475932802793 0 0 0
2191 1 5.232464371283437 0.8108724868788273 8.177579980370124 0 0 0
3069 1 5.973327274971764 2.070097227099943 8.320776541263017 0 1 -1
1786 1 6.472131405474216 1.2289551020432596 6.628275991025704 -1 1 0
600 1 5.424504830800283 2.4459640177222455 5.429219244868463 1 2 -1
1773 1 6.744985059642252 0.328600971270703 6.939373987399767 1 0 0
954 1 5.925404374500906 2.114110601238997 7.097707296779667 1 0 0
3372 1 7.335652832183161 0.7279391110843965 7.64177671782263 -1 0 -1
2352 1 6.342913687090231 2.8339386764460794 6.400013797979926 1 1 1
3684 1 8.907678244567405 2.3136589430174777 5.273321290780239 -1 0 2
3821 1 9.460495062663844 2.366209427682414 7.668990410340955 1 0 -1
3400 1 10.951510712717736 2.492402225044339 6.845108803135327 0 1 1
1453 1 11.21358872826317 1.5431487761186942 7.098632507667945 -1 2 -1
2882 1 11.034401703548589 0.41149387091917466 5.806695685852013 0 0 0
1129 1 11.940930392211884 0.8919136228398119 7.068062273429264 -1 0 0
559 1 13.317506447166304 1.5795611539600385 5.417510475264726 1 1 0
924 1 12.478196763180762 -0.6094427241010397 7.1879599589290954 -2 1 -1
3617 1 14.174995699790815 -0.21861560634533128 6.781069361885804 0 0 1
2216 1 13.705347105610342 0.6138284303348465 8.954592531423483 -1 0 1
2293 1 13.67237328930744 -0.8678809023559031 9.029709182873084 -1 2 0
3798 1 14.926417591302123 0.7930167911340469 6.138737839289449 0 1 0
2936 1 15.69472156781945 1.2314257948873832 6.670210248257246 0 0 1
3357 1 -1.169337323700557 0.8181708268939376 6.0415197675725425 1 -1 0
2626 1 -0.8697659900641377 2.5752469976281054 6.43942947500376 1 0 0
2884 1 -0.40067707125507634 1.6950628324939716 6.347774240376109 0 0 1
2663 1 0.9673568731889128 1.028520278800694 7.269493650131556 1 1 -1
3631 1 1.6710676556032253 1.6451217204507542 6.754128611790996 0 0 1
3190 1 0.9834551020961455 2.8580766962973874 7.285506783152128 1 0 0
3975 1 2.129808443531551 1.033597757222875 7.510822442343713 -1 1 0
1568 1 1.7377966202863528 -0.14044727171818172 4.94466068930165 0 0 1
858 1 4.993871482241644 3.9505008820139755 7.487361795577092 0 1 -1
252 1 2.1371254185551622 2.7377242828907287 7.881878764605842 0 2 0
3645 1 5.013285819155201 1.3765748006251037 5.409817171240406 0 0 0
3543 1 4.738888088493666 3.1374521649744764 5.794989989528806 0 1 1
1993 1 4.4269597531298395 2.0575980332574524 6.704762392652048 1 1 0
3505 1 6.286785236083655 4.10505166529726 5.7652953403915195 0 1 1
1494 1 5.552390192990894 3.6208652426917247 5.155983753321653 -1 -1 -1
728 1 8.188913665991779 1.4003686145727445 4.822947426281576 -1 0 0
1095 1 9.779523403310641 3.575659521651695 5.159831387025815 1 0 -1
3753 1 11.636421071280155 2.563825001274219 7.795200753007592 0 0 0
2016 1 10.166057918632452 2.0323293441525183 5.812902682361166 -1 0 1
1724 1 12.120565951950567 1.9123412841736256 7.176909549016289 0 -1 1
1686 1 14.460132329702494 2.3885487848022287 6.479863681420368 -1 1 0
2874 1 12.009040946271389 2.8013337228016253 6.605956165964823 0 1 1
3108 1 13.570014646617977 2.146321093266206 7.764521294504529 0 1 1
53 1 12.902403929227473 1.3523701158921635 7.3738144576123865 0 0 0
734 1 14.621394423616511 3.5520281593292733 6.4322090464772925 -1 0 1
261 1 14.815953859891998 1.4734007511735512 7.067107359931313 1 0 -2
986 1 15.591289215045173 1.9983332014238484 7.63511548073512 0 -1 0
3317 1 -1.2399998272886412 3.6622959203924585 6.703655989442586 1 1 1
1062 1 -1.1476634188111532 1.6115295035417914 8.116696332550568 2 1 -1
1312 1 0.03694904203603677 2.749531437952432 6.046746717078658 1 1 0
3569 1 0.5236697937338699 1.8586789080733905 6.938218769358061 0 1 0
1749 1 1.1214779925879785 4.434553308056661 6.0046384692197305 1 1 0
2142 1 0.508860926154771 3.5811202248987684 6.594441109115151 0 -1 0
1533 1 2.450072056560864 3.6766001831469746 7.586867357741843 0 0 -1
2977 1 4.543953796974582 5.561178014732332 8.392804102359959 0 -1 -1
1439 1 3.0621561320343114 4.40814171338429 8.484662031511577 1 0 -1
2410 1 7.246495093234579 3.150622824635894 5.753849353938487 -2 0 0
3746 1 6.960447747460837 4.235946703125493 7.853697368412957 0 0 0
3352 1 7.539560030334496 3.550501135662958 7.345677299183668 0 0 0
825 1 8.251964740832715 1.978667223215353 6.200114961547666 0 0 0
3632 1 7.210933824188109 2.250115862309107 6.385813863744994 -1 0 0
943 1 9.107566550125158 3.520183348064341 6.7382251146712004 0 0 -1
814 1 12.197533352954357 4.668323164846794 7.02114413455017 0 0 0
2232 1 10.823284605531489 3.4910893809423564 4.926034808587968 0 0 0
1001 1 11.356134676430615 3.5791614233475935 6.912809032639437 -1 0 0
585 1 10.437010605351373 4.22311114090019 6.745761536076069 -1 1 1
1978 1 12.797007863869478 2.696808783674208 7.326828836503973 -1 0 0
260 1 11.241982784561587 6.640857863924395 7.614554474929772 0 0 0
3326 1 13.870619562351893 3.029621305430089 7.131730344194436 0 1 0
3188 1 13.588751383668098 4.880783141773407 8.792232590059426 -1 1 1
403 1 15.117817028747119 2.9970429140884125 7.232417038967318 -2 0 -1
2748 1 13.731852619720735 2.8381338162737526 4.908961631540088 -1 0 1
2427 1 16.195080185656206 4.4483876945999965 6.042104139928096 -1 -1 1
232 1 0.2157129490063714 4.610302017428906 6.847250173502971 0 1 0
3249 1 3.18407425034263 5.081879907806758 5.835836968915233 0 1 1
595 1 1.7290474503981894 3.9765784493010994 6.708487589969936 0 0 -1
1127 1 3.263513651037896 5.775575627652171 4.904391521052736 0 0 0
1700 1 4.31541094279173 3.1964508049153544 6.645497531252175 0 1 1
647 1 5.141567189309306 5.499140431817954 6.102394288627087 1 1 0
1670 1 6.790917329740877 5.064090775824487 6.739745647902351 1 0 -1
3775 1 6.3737086362821005 5.632560042912163 5.985844338634187 0 1 0
1802 1 6.868645157484314 6.502932246127317 6.869191730914229 -1 0 0
2503 1 6.954103515170756 4.8415973003534285 5.561577420640172 0 0 -1
188 1 7.482675783802874 1.453400485597796 6.999245821169172 0 0 0
3127 1 8.910784056705058 6.019690684840272 6.641931129023847 0 0 1
1572 1 9.87765097539684 5.3708194197079 6.470496294874772 -1 1 0
689 1 8.3781025878777 5.359349143066678 7.918348754879464 -1 0 0
1966 1 9.888293717616884 6.321194980984345 6.103508790782088 0 1 0
3296 1 10.20879661308522 5.101551834002517 7.841074452597528 0 -1 2
1204 1 10.593923449257993 5.220123050890918 5.420040382111746 -1 0 -1
3217 1 13.136210474867354 6.373181526835238 8.926335864193158 1 0 0
3039 1 12.438401873099492 4.798856161623245 8.776043430891713 0 0 1
680 1 14.653527295530226 4.543009589416128 7.044029838305928 1 0 -1
3550 1 13.849406289386144 5.28778269904592 7.525937766325034 0 1 0
1398 1 16.02060712337605 4.1135950186385895 8.185462025903789 0 1 0
749 1 15.122040332614059 4.365712530539422 5.983625979380157 -1 1 0
3680 1 -1.0000031296241985 5.24877138858739 5.22942904874081 2 0 2
2619 1 15.712601214939195 4.738789736988699 7.337475039460385 -1 -1 1
3510 1 -0.1014227921439157 5.624908602446048 5.804349232877365 1 1 1
1358 1 0.6419469554988477 5.890304005877599 7.085964397878408 0 1 0
1157 1 0.38950315475702646 6.886885717999947 8.582629892510573 1 0 0
1611 1 -0.3550309409222253 6.139124843173164 7.630436659104216 0 -1 0
3382 1 -0.18929632866239743 6.524540342084853 6.637225637031268 1 0 2
176 1 1.6154845431661382 6.0477465383858675 8.521328193257617 1 0 0
663 1 0.46360881834413914 7.351188666734737 6.730613248951434 1 1 1
1159 1 1.4678890689979265 6.692636447270719 6.822741479822104 1 1 0
1769 1 1.827865815735347 5.415551626456696 5.274957113980077 1 -1 0
1320 1 3.069176793332189 8.855550510128337 8.187594263887329 1 -1 1
3156 1 4.214550797310199 9.045133131318652 8.611611040578738 0 0 1
3414 1 3.1950750364688316 6.363722629257873 7.403842430708062 -1 1 1
1687 1 5.971124383367267 6.759425987500547 6.343837516221464 0 -1 0
3410 1 6.554525349703791 8.080250674866507 8.225421969263275 0 0 1
2062 1 7.299940403792423 6.024167141105893 5.989470924145502 0 0 1
2537 1 7.805858528376341 5.908525575389291 6.954056708450588 0 0 -1
1368 1 6.348287494014462 6.203234490292659 7.795736077528838 -1 0 0
2493 1 6.770021159475496 7.5069092734593195 6.5582412068083835 -1 0 0
1774 1 7.397246112968681 7.859885620193275 5.660662041752198 0 0 -1
760 1 7.831582617144964 8.477834062141323 7.815662550313954 0 1 1
1382 1 8.498842843784551 8.899964479991812 9.44676843014293 -1 0 0
2268 1 9.23482136923666 5.021825870208137 7.1984673183157 0 1 0
2150 1 11.013075179401776 6.091308857504368 6.1031553209365565 -1 0 0
775 1 13.531222554184566 6.234042832140534 7.052826959335734 -1 0 0
550 1 13.510493120875278 7.331907768504067 4.57608653476937 -1 -1 0
2075 1 -0.43753335878291144 5.3391152329198155 4.270098669177448 1 1 0
3845 1 15.865215299374938 6.23797655851591 7.090691889303651 0 0 0
3221 1 14.796617264844684 6.578866902274755 6.599377507265934 -1 0 0
2244 1 16.192001493514837 6.399833971606862 5.930045099378917 -2 -1 0
1391 1 -0.04343378824573363 7.285779204810941 7.807988280518188 0 0 -1
3574 1 0.726389117493361 6.692995163983981 5.900593718532251 0 0 1
2384 1 1.453659052969078 8.378900570340297 5.298835202931357 1 0 -1
3042 1 2.40040862295036 10.533111215250967 5.973672147280877 0 -1 1
200 1 2.973253332038907 5.729865360740202 6.591431272039162 1 0 -1
3931 1 2.5334607871881425 9.635270098207915 6.412553197335967 0 0 1
2860 1 2.916581899760888 9.581282269256196 7.342393996261899 0 -1 0
1491 1 3.5623110956829445 9.385316612649907 9.3591184532215 0 -1 0
2177 1 4.859293023645289 8.410300181559693 7.419791505616995 0 -1 0
1213 1 6.870231165288015 8.60279885517306 6.481514567570097 -1 0 -2
2622 1 5.830984857248503 8.311220322702733 7.085031362334721 1 0 0
3792 1 6.438232628069973 9.5629365971769 6.591917824755182 0 -1 1
2282 1 7.604088275342589 9.363979576210227 6.695245708949852 -1 1 1
1083 1 7.943592741627516 8.294006831840521 6.568435885678251 1 -1 -1
836 1 9.643455872571339 9.145736161526466 9.007540347646467 0 -1 0
1441 1 10.795921546414686 8.291828957726693 7.722303256598867 -1 0 -1
1589 1 8.845754738498336 8.56230898953235 7.328469983934967 0 0 -1
2269 1 10.319604948878078 7.450188105781956 6.313434755773391 -1 0 1
3363 1 12.321356880619007 7.694312687816764 6.137744191834792 0 -1 -1
3559 1 12.44693063397632 6.383189839238384 7.571625141111863 0 1 1
1392 1 11.736375860642697 6.285892184637267 8.846432901480364 -1 0 -1
3737 1 10.821153800000943 5.19891736962759 6.811198717527317 1 0 0
3427 1 14.215880738352965 7.161055198483259 7.4264295414685435 0 -1 1
2040 1 13.748449555203662 8.777748446632225 6.118031444540845 2 -1 -1
3561 1 14.152819162688075 6.8505496211039 8.616814950193353 -1 -1 0
3864 1 14.710380626580015 6.227407825533442 7.617950816177801 -1 0 1
1694 1 14.535770307561044 7.789102146031302 6.25311390735077 0 -1 1
3013 1 0.6201852619466941 10.74845529568166 5.539374178483385 0 0 0
1627 1 0.06492666701950678 10.439986943760022 7.289196195795437 0 0 -1
278 1 14.837470983444234 8.901680446061992 6.076124482892725 0 1 0
3819 1 0.4966506913816353 9.47348883087496 6.409198792300322 0 -1 0
1634 1 -0.844040298808678 7.663894112694555 7.201130072465412 0 0 -1
1308 1 2.3316745361587174 10.955573175554179 7.163564240599317 0 0 -1
2394 1 1.9285327447910285 10.04764458000788 7.784687394333702 2 1 0
2668 1 4.053497826042152 10.300890847481156 5.037247101060944 1 0 1
3086 1 3.31531886659492 10.53357006856006 6.560754277860908 0 0 1
1411 1 4.340585300133177 9.943890111413419 6.765230152305339 0 1 1
31 1 5.225277075948588 9.249149839260912 6.784929094355105 0 1 0
1692 1 5.698101022805783 8.930790503263333 5.927064613617294 0 0 -1
861 1 8.707449316404722 9.169212808212167 6.446553962582326 1 -1 0
3193 1 8.753501636036939 7.7846630811097715 6.27379415761963 -1 0 -1
267 1 9.965722458863235 11.8919237815754 8.618110671149099 1 0 -1
2898 1 7.798437090051481 9.039149576936836 8.692160910346972 -1 -1 0
3247 1 9.428080083194157 7.748744112361299 7.5800761988125345 0 0 2
3894 1 10.421066360300342 9.010776634193967 6.9391830840341875 -1 -1 0
149 1 10.56982150171128 9.96645243124887 7.720271968225186 -1 0 -1
744 1 11.39913759265436 7.976976800866691 6.580090010664474 1 0 -1
2508 1 13.046344169660308 8.058582348399284 7.696564567308512 1 0 1
3779 1 11.483908746388344 9.262761146869385 7.86646100517388 0 0 1
1080 1 15.612735901374425 9.846276567822105 6.817915753315518 0 1 1
706 1 14.010317486655358 8.292601218845158 7.161339222624772 0 1 -1
2140 1 14.347180533944154 9.146918108704673 7.981385278078982 0 0 0
607 1 14.398888457405285 10.11947589970405 7.493400760933703 -1 -1 -1
1590 1 0.48978007813496327 9.70247831819488 7.989445995764724 1 0 0
3327 1 -0.035457127404268984 10.60148209350161 8.591525986883758 0 0 1
1643 1 15.242835364237415 12.135700094221935 5.591070462626645 0 -2 1
3412 1 15.769973255467153 8.38392746651618 6.70997215120137 -2 -1 1
2397 1 1.1181345009222636 13.445776365257242 7.255667228021025 0 1 1
3728 1 0.9246104643947053 10.965483208165049 6.7324079357117395 1 0 1
1510 1 3.1355674243001683 11.630185254823425 6.260296988540235 0 1 -1
3582 1 1.8782905739842142 11.665864290745645 9.056285878210872 0 0 -1
1029 1 4.442278847525773 10.650960815586526 6.046334302387698 0 -2 -1
3032 1 5.404843222489498 10.622082234528346 6.585553443722398 0 -1 0
3865 1 6.35197850982895 10.09435058576081 7.435480555353614 0 0 0
3683 1 5.270849251494104 8.160649121922107 5.37222726601863 -1 -1 1
3791 1 7.428200949054789 9.878565710249493 5.218010192485865 0 -1 1
1696 1 7.52270422524583 10.896381653989758 5.651747552907397 0 0 0
369 1 5.737722710417481 10.089585758722835 5.627179273757805 0 0 1
1605 1 8.836460947083253 10.412787195869502 7.661900864387206 1 0 1
711 1 7.160942818675171 11.88319138023696 6.866986239398157 0 0 1
1847 1 10.80329963351854 11.135887801168124 7.062383946324717 -1 0 0
1901 1 7.973124343442658 9.931405007646106 7.6008575028546606 -1 1 -1
3856 1 9.984724431370722 10.913433305391404 7.89881080238229 -1 -1 0
1192 1 8.149462230573416 10.386365680074693 6.5921711185487375 0 0 -1
3890 1 11.797983170332811 9.285610947099077 6.707242449068554 -2 0 0
1025 1 11.459343089771219 10.209500425572022 7.202017294176345 0 0 1
2843 1 12.281256724923491 11.486048622883816 4.651467352588711 0 0 1
2571 1 13.377946873197256 9.687215979785313 6.374883812060617 0 0 0
3942 1 11.852904202975202 9.651030922433428 8.638742370050672 1 1 1
199 1 13.605117753029965 12.867470976347747 6.808542028086885 0 -1 0
2627 1 14.477016090961119 10.000895460232082 6.199460450868728 0 0 0
830 1 13.862430232556934 10.946387558065693 7.1389075987006265 1 -1 1
3888 1 15.757866135279105 10.841843509020727 6.539420457861157 -1 -1 0
239 1 14.276637590075843 9.310459298612633 6.886737384880167 -1 0 -1
1477 1 14.92397967417569 12.361275236992675 6.661402487285732 0 0 0
3214 1 0.27395104003406145 12.994392336333794 6.823342961291299 0 -1 1
3385 1 -0.6014855447611371 11.704631693812534 9.069059360946493 2 -1 1
2362 1 15.311489410856414 13.087585273172616 5.621638721889194 -1 0 1
1485 1 0.6138940469036986 12.945985167908004 5.714036104045328 0 -1 -1
2798 1 2.2041767390703044 12.250747671700898 6.106847359440868 1 1 -1
1819 1 1.2798054765951155 12.368948497149109 6.690466752501961 1 -1 -1
3535 1 0.6637403461661908 11.767732702504365 5.8854936642781 -1 0 -1
2351 1 4.466117989841034 11.790535947436195 6.262360260943765 2 0 0
1310 1 4.3380347108737265 13.848450699304797 5.873490344447943 1 0 0
779 1 4.122197113797682 12.397540075841464 5.445152777575958 1 0 -1
55 1 2.72660849306926 13.68503768730902 6.3375031079544435 0 -2 0
3341 1 3.842231294206419 11.248176018144735 5.170755130566688 0 -1 0
3371 1 4.337330448488846 14.632721500856325 4.8994309453590486 0 -1 0
982 1 5.432968591530644 11.75597519677292 6.357575448459238 -1 -2 1
1739 1 7.442941110969535 12.061078684298712 5.833245943731255 1 0 1
3143 1 6.47541287321833 13.87678651147648 4.047456734347955 0 0 0
747 1 6.31403386195313 13.664937600990424 5.092661407440198 -1 0 0
2044 1 7.938817690615453 12.426892190405995 7.247318864298899 0 1 1
1428 1 7.34323166164274 13.177403943594971 5.732761567410026 0 0 0
133 1 9.0148487595213 12.59353663363187 6.708980078388473 -1 -1 -2
2344 1 11.305063648124499 12.287285707756093 6.443576226233183 1 0 0
1104 1 11.33301322203155 13.983073525010402 6.9893268740495245 1 0 0
2415 1 9.54763357850431 14.882648498753987 7.54727689137963 0 0 1
2425 1 12.380032659064717 11.994278705188313 7.576186437047447 -1 -1 0
2656 1 11.853198860448858 11.471351545080553 6.729055069217033 -1 1 0
1103 1 13.844163216711337 14.083286808104198 6.5432398147832656 0 0 0
3782 1 13.448372163897933 11.88786925387242 8.16190672768484 0 1 1
576 1 14.426872719885937 14.010165212766436 5.768443153222274 -1 -1 0
1851 1 14.142014406955958 12.758580544382397 5.755711067444649 1 0 1
3604 1 14.791166525889444 15.020591986460254 5.925696144188524 -1 -1 0
335 1 14.730838344494686 13.011786360394144 7.436114114169985 -1 -1 -1
1452 1 -0.3629467222774252 14.242491163793735 6.045462835364821 0 -1 0
2767 1 -0.04594323543289325 14.150541843894558 7.166984280097312 1 -1 0
289 1 1.7711777074597155 14.065454944466834 6.640747810464861 0 -1 -1
477 1 -0.21563950568670753 13.779038151787429 8.1940712692403 2 -2 -1
1622 1 1.053764175867136 14.631769065344214 7.126644053032848 0 0 0
1764 1 2.1790240929077727 12.916966247559069 7.462727916027566 -1 1 0
3770 1 2.9076362360270425 12.736731493006197 5.609144225900749 0 1 0
1874 1 4.571446413384785 13.692299036715818 4.450300235587053 0 0 -1
3993 1 5.251814722550337 14.199776040523307 7.0663319347854365 1 0 1
2122 1 3.5607388375556495 13.448589128766503 4.984204832064335 0 -1 0
2162 1 5.802633231532882 13.73569501387701 6.2141228293236095 -1 -1 0
1502 1 6.104236984835364 14.81647195886908 6.649385736866745 -1 1 0
1596 1 6.2845799504113025 14.989476827795055 5.401369017562704 0 -1 0
1759 1 9.05436132245361 13.778378058926325 7.119477673198233 1 0 0
3107 1 8.290061075276158 14.863482028543672 5.751944840342201 0 1 0
3862 1 7.061199151848875 12.846695736312796 7.050217973139578 -1 0 1
2248 1 9.333780817468305 14.540166687925868 6.193015198174159 0 -1 0
1644 1 9.551055521889323 15.41117451542063 6.668146390206642 -1 -1 1
250 1 9.80816648048826 13.076267677305866 7.6655944278867185 -2 -1 1
2582 1 10.727497399816453 14.823646148177321 6.606646641760834 0 -1 0
768 1 11.837143041483744 13.140152957083837 7.241663389099482 -1 0 1
2964 1 11.820741807247495 13.921543210541659 7.995518069474045 -1 -1 0
522 1 13.510876157374543 12.474735149075864 5.008451711504428 -1 0 -1
3450 1 13.276730438080103 14.521907665991467 5.7200974212511655 0 0 0
990 1 13.158548605199622 14.633775423678703 7.058597790924178 -1 -1 0
2048 1 -1.2512026201431385 15.841735278595944 7.26838939935511 0 -1 0
627 1 14.957019896352506 -0.7360856764554511 8.390802979911944 0 1 1
3835 1 -0.8793909904645894 15.104943277970072 6.276936730571494 -1 0 1
1191 1 -0.9257393257268198 14.812071561760881 7.252472268947967 1 -1 -1
1218 1 1.547103715814647 15.866065931458575 6.487748713720335 0 0 0
2994 1 1.3455934297243966 14.842057631516866 6.055309259537895 1 -1 1
2323 1 4.225766108392842 -1.1621274140602476 5.745163434843133 0 2 0
2169 1 2.0245502373921305 16.00197564824571 5.260862107002745 0 -1 0
1063 1 2.3023650463183296 15.086221143919555 6.741863873580018 0 0 1
379 1 3.6956387889023716 15.695645434122042 6.578495124882041 0 0 0
3374 1 5.069638424443034 -1.1158306852749134 5.087750130141047 0 1 1
910 1 4.695331017320383 16.1451159797748 6.683056418684838 1 -1 0
152 1 4.518896268425104 15.372292826510261 5.8554929316009785 0 -1 0
2952 1 5.792159899182831 15.914911939121701 5.910559438202923 0 -1 -1
3929 1 3.7072017260553025 13.938655206064226 6.768760018667818 -1 0 2
2981 1 5.953426408312638 14.59868279432741 4.447243456686495 -1 0 1
2386 1 8.230269933781495 -0.7125228862081712 5.996785614955911 -1 1 0
2520 1 9.172848610124225 -1.1199801228485915 6.779079893070502 0 -1 0
1974 1 6.007772867057734 -1.2665943104397774 8.306187749935448 0 0 0
2187 1 9.07804981039022 15.8097174393085 7.7690206810311295 0 -2 0
2588 1 9.538009895818195 15.468802296122863 4.574478591406716 -1 0 0
481 1 10.224632157798212 -1.2728045597384146 5.168987287845923 -1 0 0
3218 1 10.150870365171563 15.965589529904832 7.346914047688079 -1 0 0
3059 1 12.121327683234949 16.115284925001934 6.764260377343456 -1 -1 0
3566 1 11.459014476495037 15.372734804536819 5.865969380867772 -1 1 1
3922 1 12.707421710741004 15.290064783679107 6.332047327907172 -1 0 1
207 1 11.81601153613149 14.921805884393901 6.8351219031138495 0 0 0
593 1 13.96152053757562 15.5055571074599 6.488648324845793 0 -1 -1
1827 1 12.590882996556862 15.525054736388828 7.546807975679885 0 0 0
1069 1 15.704965947619396 14.31700693809839 6.1488680453425815 0 0 -1
3161 1 14.446382851871435 15.220727522224578 9.011502456542402 -1 -1 1
1941 1 -0.6250688689791134 -0.8622898466826343 7.3104299159814055 0 0 1
983 1 0.4133950645422364 14.853714570113482 6.474141658580413 1 0 0
720 1 15.690305721464572 15.302618211358965 8.366147603356472 0 -1 -1
664 1 0.9428642215253347 -1.0160616455253049 7.2069371572547745 0 1 0
1073 1 1.2403235607342102 -0.7454732351642719 8.192462374375875 2 -1 0
816 1 2.868760827450391 -0.14672638952101824 9.416921959578293 0 1 0
2357 1 3.6072646576563656 16.176151911256888 7.580918726116561 1 -1 0
3138 1 2.6793131737867086 15.981083375837397 6.595280196932566 1 0 0
3880 1 4.563385334728034 15.364054451530262 7.48765443474845 2 0 1
511 1 3.2449320960988794 15.99578997951551 8.677896361264029 0 0 0
3490 1 5.959637199950681 -0.3231186024117776 7.638506964537589 0 0 0
3355 1 4.8852419440387695 14.491502139815582 8.123494678168099 1 0 2
2989 1 6.025374706375044 -0.2642650731696945 8.77561288193458 0 0 0
366 1 8.634035418295733 -0.5132884852370907 7.5603931383815315 -1 1 -1
581 1 6.069227319893943 0.8811752178507075 7.558171761767593 0 0 -2
3280 1 8.178133815837008 0.4808943835161197 6.676811712830041 -1 1 0
1071 1 8.262735474400452 -0.1513168721230913 8.713170292845035 1 2 0
3136 1 9.928285066012696 16.229353510634585 8.335404562888256 -1 0 1
1541 1 10.145913245071233 0.49790097731924665 7.990486369081234 0 1 0
2400 1 8.631982040172991 14.596080756635152 8.14116700374654 2 0 1
1226 1 8.370854761795568 16.102330542350526 8.456323132572278 0 -1 -1
942 1 10.988657368083556 0.4892890413963291 9.092400383795527 0 1 0
658 1 11.476115738273839 -0.5712191109636784 7.297869854636238 -1 0 -1
1077 1 12.742483551043575 0.2739416483834962 8.9847062566854 1 0 -2
1490 1 13.48829545962691 15.503832505969445 9.611454235818712 0 0 0
3712 1 12.159959931400603 -1.0956085582969812 8.097077444025544 0 0 0
1163 1 14.498150936368791 -0.2189504895059997 9.186465350490879 -1 0 0
2817 1 14.131734210393676 -0.23855355730890127 8.072946587766028 0 0 0
452 1 -0.959085553241368 -1.0857254889992223 9.986329702253107 0 1 -2
2974 1 16.2211931916241 0.482564124862348 7.915327878338198 -2 0 0
2283 1 -0.6619411735697935 -0.33061719484619334 8.134717574797962 0 1 1
3783 1 2.2555651730355586 -0.5561580977516983 8.597814941004444 0 1 0
274 1 1.0754037440909214 0.019517366356874843 7.2371236184614105 1 -1 -1
1803 1 -0.659660620029104 2.251718934864702 7.424421367056155 -1 1 0
1182 1 0.11190019612995417 -0.03493131065939248 9.99154645487931 0 1 -1
1227 1 0.9513680871779489 0.9917576819226417 8.358126388646864 1 0 0
2305 1 3.167003223188452 1.7168863378586035 11.282329660850746 0 1 0
211 1 3.3781165377518985 -0.9486960156413398 10.190355564505957 1 1 -1
3471 1 4.009491584944629 -0.7259234986206912 9.15006733758978 1 1 1
2686 1 5.124999019923342 1.9543845086418368 7.653644287187399 -1 2 -1
127 1 5.95916529797566 4.026398699601809 8.04428386176093 0 0 -1
3552 1 7.0206717391309645 1.7063260188941172 8.92738497594818 0 1 -1
2089 1 5.952473667775154 1.3588746217822845 9.27475485855599 0 1 -1
3137 1 6.7891983404954885 1.7196939884966436 7.843953890574621 2 0 0
23 1 10.462886272523352 2.2840328739356672 7.738434804527746 1 1 -1
3373 1 7.298779060347737 -0.2760457941731882 8.396679634779051 0 0 1
2525 1 11.072644509877058 0.0020729961516856577 8.048449530813341 -2 2 0
3776 1 13.333080957806999 0.2078765858844398 7.506011250524452 -1 0 0
3168 1 12.07891252254902 1.033531964813537 8.229779372513088 0 1 0
1606 1 12.11596711197632 -0.035893152833494035 7.980103584511072 0 0 0
1046 1 13.103992667583148 1.7644071511819472 9.069858880378584 0 0 -1
909 1 12.6696770602323 1.482453268607701 10.584113132834796 0 -1 -1
3899 1 13.986345406351159 0.9954852916192563 7.780533298806013 -1 0 0
3531 1 13.158461643997589 1.0172194046892784 9.849096161211845 1 1 0
787 1 15.870048404462416 -0.8126355680340501 7.733746694604667 0 0 0
47 1 15.564010186284069 0.11874452907678701 8.567845032534477 -1 -1 0
404 1 -0.6631263016405198 0.9506115322849302 9.73298391502082 0 -1 -1
3251 1 -1.198159078771523 2.8977953575442337 8.266164909802855 -1 -1 0
705 1 1.3311087877813188 1.9181090594756984 7.818118628387019 0 2 -1
2356 1 0.23037151229996966 2.761901019596941 8.219191792917975 0 1 -1
984 1 3.129726546013882 2.6399952631474606 10.526508617972151 1 0 0
3237 1 1.3997408187560287 2.612063161111816 8.563716495495525 -1 0 0
2478 1 2.5504822198585115 1.8827102937177727 8.439564226296879 2 0 1
1276 1 2.79773693610913 0.6506408705928097 8.226926842302426 1 0 0
3183 1 1.86096700208713 1.6937694590742693 9.185624301567994 1 1 0
3587 1 4.196949349169018 0.3259909866266 8.749598074052276 1 0 1
3142 1 7.370550165295212 2.5557154227471663 7.427261649852367 1 0 0
1060 1 2.935425911018257 0.5274462273407765 7.187938290714953 0 0 -1
578 1 4.902622074304177 2.557259373830858 8.784116714145458 1 0 0
1667 1 7.104287052653081 2.679055434171195 8.533193388921502 0 0 -1
1564 1 9.302858356835491 1.896157332377813 9.244337671788157 -1 1 -1
1087 1 6.298066708448121 1.6629216334486663 5.772934588797312 -1 1 -1
1442 1 8.912607443120724 1.2174025024720376 6.991784230659691 -1 0 0
1102 1 9.252368316116545 2.3617884829574827 6.406447481164767 0 1 0
3338 1 10.731353636586471 3.2758869985924175 7.901250554040766 -1 1 0
3859 1 10.911756245207846 1.184543197632788 8.246422773942049 -1 0 0
707 1 11.88010580617328 1.8149281178966894 10.06253271120225 -1 0 0
807 1 10.839473105222375 4.236559628100121 7.829132948520758 -1 -1 0
1757 1 13.259508283128449 3.2258363080524983 8.258754364836424 0 0 0
2301 1 13.81647333818932 2.8650588854518286 9.075570521968318 0 0 -2
980 1 14.335498404600072 1.877326797885507 8.845614782942572 -2 0 0
3731 1 14.894472603927031 3.403533530576314 9.029735090494666 -1 0 0
1151 1 15.796708335001856 1.1228204839416982 8.829401830649413 0 2 -1
1059 1 15.006374389218841 1.1292137799461544 10.61879311999425 0 0 1
2377 1 -0.3931888125755417 3.776994354426601 7.570475894963311 0 1 1
1969 1 0.6063478273490317 3.545031690981027 8.977984786717483 0 1 0
3418 1 2.831668094468145 4.128914205509144 9.472350932185261 0 0 2
3025 1 1.1711140390336845 3.5232752064536994 9.804866125299748 0 -1 0
1878 1 1.2450939491924449 3.9625350158890758 7.671982763142768 2 1 1
2531 1 2.8991543044637664 3.325532065248786 8.679917028907989 0 -1 1
3428 1 2.634708436059153 5.001376835632695 10.12215977819721 1 1 0
3885 1 2.433856433508424 4.923318014024964 7.129537993308096 0 1 0
708 1 1.9403400317509711 4.7511011845236135 8.159588694007 -1 -1 0
3199 1 5.276668660297532 6.301863137587939 7.614276357836598 1 1 1
2413 1 4.084696844311891 4.298387481267045 8.931835255993366 1 0 0
786 1 4.2680280155134005 2.728765726998165 7.971334918870607 -1 0 -1
3087 1 4.991234030097343 5.316437030480375 7.344558025815202 -2 1 1
2536 1 6.263177204565513 5.027443891218985 7.665664789244685 0 0 1
1505 1 6.556172514027745 3.9193564783335697 6.910795616372642 2 2 0
1760 1 8.128004845303087 3.3289271212526392 8.247839683010838 0 -1 0
2639 1 10.039734374525 2.931564739271927 6.999261737018426 1 1 0
3000 1 10.260371006524503 3.7587743156358595 8.716004767430189 1 0 0
1719 1 11.916271404570201 3.9444891588370776 7.7988055891594765 1 -1 1
3016 1 11.267089081748981 4.985125757565244 9.197166049528528 -1 1 0
1350 1 14.376996934986995 2.958613875834504 8.189376484884587 0 0 0
2963 1 13.925065170784505 4.2287609803552035 7.656384632187484 -2 -1 0
2454 1 14.054098907157288 3.9190269093948675 8.812843712222534 -1 0 -1
3454 1 15.552684126944989 5.467295002949854 8.292078731930182 0 1 0
1958 1 15.265788503106485 2.515558391374683 8.569220193961371 1 0 0
3754 1 15.51529205946727 2.269636237628362 6.667600178103763 0 2 1
1066 1 14.923248899794615 3.894134215980343 7.982075883938501 -1 1 0
324 1 15.76841642621427 5.108465160292727 9.71194181519054 -2 0 -1
3206 1 0.47856185728158995 5.711044224074119 8.078085328368502 0 1 1
49 1 -0.02578795893258934 4.725494706401538 8.357328933107931 1 0 0
1118 1 -0.516780511675214 3.7875400083278814 8.69748426893074 2 1 -1
1591 1 1.7053867556676314 3.7949324910988187 8.779426566759255 2 1 0
1705 1 1.2642356951818172 5.100995182093882 6.984716792233295 1 0 1
588 1 2.2890565251809103 6.250897308625626 10.599950407627842 0 0 -1
1944 1 0.689755033094736 5.978536156504893 9.104192386709821 0 0 -1
343 1 2.3171428827468414 5.9111979841663125 7.662102486851785 1 1 0
2257 1 1.8750603509362076 4.80594691444743 9.216857456918062 -1 0 -1
488 1 4.389877725062339 5.66020350660053 9.864001694730892 1 0 -1
3413 1 4.017621667937521 4.322431573066223 7.162959026029235 0 0 -1
3848 1 3.46577185658398 6.093124598393763 8.472732863580307 0 0 1
2949 1 4.993999776663444 6.1717409875772455 9.30972405516448 1 0 0
857 1 3.898579176291462 5.202448965426079 6.672400618748259 1 0 1
2951 1 4.757007731018275 7.317365908799108 7.39673833088556 0 0 0
1444 1 4.226671620402564 6.208868634517232 7.537071314175801 -1 0 0
2734 1 6.814748010999496 6.424036081799733 9.0615273366734 1 0 -1
2418 1 7.11635868309674 5.427362546546002 7.86135088202712 0 -1 0
3583 1 5.953098903684577 5.515377442792748 8.485698689006131 0 0 1
3197 1 7.433776371034952 5.560294654977296 8.995388210347814 -1 0 0
3901 1 6.940222654613981 3.739155788291101 8.71815722325563 1 1 1
2693 1 6.698517449565213 4.751571034338379 8.624693707653488 -1 1 0
3125 1 9.05294627276999 4.939716005672812 8.578700117529301 0 0 0
1475 1 11.238508799776575 4.029843239168725 5.856512764417669 -1 0 -1
976 1 7.7693815019447126 4.50764278345559 8.427459854465917 -1 0 1
2186 1 9.457196331873678 4.346185923574066 9.754549879269225 0 1 0
253 1 12.155596998491763 7.0533191321246544 8.348581886352246 -1 1 -1
264 1 12.627965852621813 4.966129384373437 10.404003386664689 -1 1 0
3131 1 14.297906259638232 4.764084894364439 9.517369086452732 -1 1 0
874 1 13.036777980086654 5.656411479652697 8.071694252264612 0 1 0
2226 1 -0.7300909307390192 5.384430274111763 9.148975776271673 -1 0 0
2948 1 0.1692089631852911 7.550914850763252 9.830548816024352 1 1 0
3314 1 1.0641920770693831 6.582733238846436 7.739465202057101 0 1 1
2515 1 2.030790433689168 5.692914116849683 6.309766116663396 1 1 -1
3265 1 2.558017621805088 6.711569028627281 8.453975289770574 0 0 1
3509 1 1.8458799815102926 7.20204134909306 7.668090668919453 0 1 0
3757 1 4.008866212125993 8.129303213611356 8.003280958566151 1 -1 1
957 1 2.145420409127952 8.506425110811442 7.358258029531683 0 0 0
3163 1 4.160078303262791 7.678168131493491 9.613278348252877 0 0 0
1531 1 3.4016241910860785 8.205202861858904 8.905428630679543 0 0 0
1346 1 5.898044731681189 6.70956908304578 8.642490412196635 0 -1 0
3882 1 6.875942320825327 7.563213095433721 10.315325784270113 -1 1 1
2960 1 6.765856068081069 7.093118330526613 7.968316870693492 0 0 0
1798 1 7.491536256525752 6.304721799597483 8.273351845803715 1 0 0
3914 1 5.807348973117688 5.6919479276853195 6.833344860120285 0 0 1
3545 1 7.790791328092942 7.402261827290266 8.0926959489705 1 2 0
1507 1 9.396417264768541 5.853546562860582 7.822048075940797 1 1 -1
2235 1 7.801135959743959 7.113550520578233 6.7150845178817455 -1 1 0
1980 1 8.117854648355111 4.88669679268438 7.033400952963721 0 0 1
3449 1 10.178556770204878 6.247786024750646 7.0171043198356156 -1 0 2
650 1 11.624329241882473 7.642052747167492 7.549791080237165 0 0 -1
2760 1 13.14053674959366 7.684904130728242 8.876087829916383 1 1 0
2331 1 13.204156489175654 5.464917517800814 9.608816593888687 -1 0 1
3056 1 14.527945954034383 8.302073215708152 9.945101986704174 0 2 1
3015 1 14.031331193090768 5.87779069558121 8.485867457393221 -1 0 0
3891 1 14.777923577092274 5.817264089250941 9.243044951448802 -1 0 1
2870 1 13.706941202526 6.391906951996018 9.740606063693097 0 -1 0
2188 1 -0.9122938387232719 5.715671180013 6.460868402920938 0 1 0
1065 1 14.84882417833644 7.768042902423067 9.155959307446988 -1 1 -1
882 1 -1.1567241371197032 6.753693963831388 9.726187046836504 0 -1 -1
2551 1 -1.1568928848954494 6.974312331686042 7.958567539734199 2 0 0
3298 1 -0.5509831787436009 7.7116907045543694 8.663000442615171 1 0 1
1033 1 -0.6895554886688988 9.807018250789325 8.235093267109928 1 0 0
388 1 0.19600175076729442 8.361988900050896 7.342935847077003 0 1 -2
156 1 1.3201794459817333 7.911692504075358 7.145522444327966 1 1 0
3151 1 0.9315521541007357 8.853671949363198 8.639080024381652 0 0 0
3196 1 1.1369833872995163 6.894627787049437 9.775444117040573 1 1 1
671 1 1.9431769103429875 9.052872693222266 8.204628620158726 1 0 -2
3874 1 1.2091483067543356 9.195754237923888 7.328998507995401 -1 1 1
3252 1 4.9473746554473585 9.333602320294178 7.85752626432534 0 0 -1
3090 1 4.705259919732573 10.149432626632677 8.568228704928115 -1 1 1
2052 1 5.857386338843064 7.326114610579149 7.633673372496393 0 0 -1
2214 1 5.904002840032483 9.272863852722926 7.631467814741265 0 0 -1
656 1 8.124291854938738 9.98292666466277 8.7954744424344 -1 0 1
1615 1 7.170333245464928 7.408274329025515 8.954599352023525 -1 0 0
777 1 8.772579299629287 7.73978413076566 9.353149632317932 -1 0 -1
2535 1 12.055313218442677 8.609093107494914 8.544781244125392 1 -2 1
1511 1 10.45578044316557 7.408660868453278 7.399565626570752 1 -1 0
1654 1 13.863968050939155 7.402925899123979 9.699867831784971 -1 -1 -1
6 1 14.87681257739073 7.637728371641497 8.171379787335125 0 -1 0
2298 1 15.04149425628454 8.522244199999763 7.457837804832941 -1 0 0
155 1 -0.012346343888232303 8.657352663768622 8.281485967527848 0 -1 0
3810 1 15.504236298300615 6.768299537629982 8.466765198983934 -1 0 0
3008 1 16.119722974203345 9.559584493171315 9.060795128976329 -2 0 0
1388 1 15.912828068123638 12.168600830674649 10.143092027612548 0 1 -1
164 1 1.0924860251208455 10.64179293384609 7.7931702278408 0 -1 -1
949 1 -0.1322406997127945 10.439948886371235 10.716037835921199 0 -1 -1
1857 1 0.4042496731725336 9.634548980577204 9.095201430312555 0 0 0
2899 1 2.754092635209388 10.962253792865633 9.416261735276956 0 0 1
3455 1 3.248975137456765 10.653378222284614 7.533265917255827 -1 -1 0
1817 1 1.4083172252551437 10.716096687952838 9.16787537873896 0 0 0
2434 1 3.6817439911158383 9.771353948798478 8.027441690931763 1 -1 0
1091 1 5.198714117109249 10.363752589760168 7.700340601265333 0 0 0
2192 1 6.6522367401710865 9.233012134701971 5.627637609270634 1 0 0
2198 1 7.281072785200244 10.31521318866322 8.260333544541197 1 0 1
2614 1 7.046651660469847 9.171635822000075 7.687767016343747 -1 0 1
1529 1 10.217532303825912 12.553633893594842 10.875922344864437 -1 1 0
3751 1 10.898206914135404 8.400345799147239 8.91515973020148 0 0 1
2404 1 10.092296986128234 7.829115886274524 8.640205625971054 0 -1 1
2763 1 8.871979106983467 10.738386513698332 8.659022522188614 -2 -1 0
3979 1 11.373174481967341 8.887058390028606 9.770951241907667 0 1 0
2673 1 9.796270684892313 8.820182885799701 7.774467392574383 -1 0 0
3676 1 12.635376600991187 7.371486458448814 7.0953311223656375 1 0 1
198 1 12.537873003477495 9.54759887730064 7.660461373561523 0 -1 0
2256 1 15.220650062350387 10.650569654538694 9.865865434988917 0 1 -1
2469 1 13.948301459733761 8.077295121614002 8.341916477139147 0 0 -1
1565 1 -0.5159609048373015 9.351901212912267 6.9278714614534085 1 0 1
840 1 15.647244854326395 9.581945226760686 7.9181279093527674 0 -1 0
124 1 -0.22744342528767914 12.089849168736206 7.269440175319533 -1 0 -1
1472 1 -1.012602849820833 10.491917067046796 7.484055129657946 1 0 -1
1443 1 -0.4007113532405199 11.187185898115569 10.028125503451982 0 1 0
2997 1 1.3838212351882686 9.73291416780006 8.811745684649287 1 -1 0
2932 1 0.5173555325929133 11.868382932866563 9.77466655510564 0 0 1
212 1 1.7949172694883115 11.629168626702446 7.909156137428251 0 -1 0
3337 1 4.422213745575916 12.6881051816156 6.872463801472158 1 0 0
1175 1 4.34386547738784 10.911522517983625 6.9761387862223465 1 0 -1
977 1 2.58649096509358 11.98413208682307 7.162838935218385 0 -1 -1
2967 1 3.545885063967119 10.565384355091146 8.876670794854178 -1 0 1
177 1 6.426822616523712 10.914882963085097 5.888715205916126 -1 0 0
870 1 4.799571830473538 11.419749839486594 7.77163703857274 0 -1 -1
750 1 6.218800680483166 10.810251079255869 8.467250030237627 0 -1 -1
1935 1 8.034561214346377 11.23382182811417 7.32049046496042 1 -1 0
119 1 6.164752985072692 11.88679985799463 7.369801055680593 0 -2 0
1579 1 10.210192357343361 12.087207533083578 7.364184345570306 0 1 0
3589 1 11.226591819095395 12.001679170256551 7.656451073382032 -1 0 0
1578 1 9.921024852503315 10.670885217925376 8.988682666186563 -1 1 0
2770 1 11.95960671019701 10.880912032859609 9.346535078869099 0 0 1
767 1 11.836502524637773 10.667416660170492 8.17565506840389 -1 1 2
2327 1 10.807733907283607 10.79329436314306 9.938794648969322 -1 0 0
772 1 13.306433142240028 10.234467119882579 7.757948144597018 0 0 1
67 1 16.061849089905603 10.634486461502053 9.191712846510013 0 -1 0
1707 1 14.64094246966164 11.292499045335724 6.431222368704289 -1 0 -1
3601 1 -0.4365919286705372 11.328198226173303 7.912560187296409 -1 -1 1
503 1 -0.6058482413585938 13.066924292989258 7.366905207424374 0 0 -1
3085 1 0.16607291936748592 13.798573491665275 9.130772706122976 2 0 0
3200 1 0.5880863886912395 11.73247683937884 7.707357980503362 2 -1 0
491 1 -0.40506262946671323 12.423086438007493 8.239014300922044 1 0 -1
3232 1 0.4445936156087231 12.608254602256988 8.96280867847184 1 -1 -1
1562 1 2.7430604721354817 12.095650603461536 8.182046064245688 1 1 0
2207 1 2.8337777243288045 14.011676886038854 7.431373112124589 1 -3 1
1896 1 2.336915697782314 13.146455317102847 8.687615676089209 0 0 0
2028 1 4.089481616214072 10.861308456769041 8.076130693200405 0 0 1
2145 1 6.545716150753784 12.465657546394235 9.104786445694646 0 -1 0
2168 1 6.120292667209777 12.691446612777414 6.390298897711182 0 0 0
1689 1 6.838577493281747 11.196070740792479 7.8176534357082215 0 -1 0
3842 1 6.76005281385865 11.439587855438743 9.155798081894021 -1 -1 1
3642 1 7.152966146995448 10.595643579307017 6.954494281942905 -1 -1 1
3376 1 9.267791854856396 11.428258870938707 7.4683082528660485 0 0 -1
3936 1 10.780951125014756 13.015288139965396 7.247493475150987 -1 0 0
769 1 11.380737313259548 12.930183615078326 8.190954813905764 -1 1 1
373 1 10.773919982705982 11.341385195251432 8.414624177663255 0 1 -2
3747 1 8.6255399523086 13.128929705716862 8.355306698260481 -1 -1 0
906 1 11.814328454014221 11.810655970477622 9.846248160579304 -1 0 0
3458 1 12.672271323052007 12.463712835610444 9.394754096585949 -1 -1 0
3795 1 11.0895997987983 12.571871091472019 10.211152152755359 1 -1 2
794 1 10.78469838088138 12.512088695858614 9.077299242461946 0 -1 -1
3576 1 12.696645934111348 14.460434493931682 9.879006506339914 -1 0 0
41 1 11.857584414804906 12.263031437092202 8.860164331623753 -1 -2 0
1873 1 12.89334905814781 11.571845060173098 6.8533098137001325 0 -1 0
85 1 15.003726282090014 11.943797445622089 8.294561162777768 -1 -1 0
507 1 13.82897358593043 14.355892739510852 7.815403951073611 -1 -1 -1
482 1 14.35348492414349 12.05780758030123 7.395620809452408 -1 0 -1
933 1 16.10286099966333 11.983439269078731 7.011412086754028 -1 0 0
3958 1 14.710775759003486 13.566031293150486 6.583380476796835 0 1 1
3240 1 16.17954982253632 11.714274803779476 8.214912117206369 0 -1 1
3501 1 13.61260628461174 10.873930877606488 8.444629959544033 -2 0 0
3818 1 15.975873919063176 13.284851084975092 6.679818827349299 -1 0 0
248 1 -0.10512246522707835 15.655648740284853 7.519766599700665 0 -2 0
782 1 15.60110212116582 14.690453788408748 7.428531990959975 0 0 0
3758 1 1.3029909901048211 12.76964839047622 8.143443383184856 0 -1 -1
3726 1 1.9576144668418531 14.738852396191309 7.766134218264101 0 1 0
3519 1 1.8599579454998887 13.767117443385725 8.088478434051252 1 1 0
2955 1 3.290582842910969 12.670453379969702 6.711351003932757 0 0 -1
3621 1 5.6417693935580235 13.25444040723602 8.198093556654724 1 -1 2
18 1 5.025897440491244 14.546019192825314 6.0862481341775165 -1 -2 -1
676 1 5.400616942086712 12.244994743081792 8.806589866113175 1 0 -1
2749 1 3.8208302668652276 11.94164376435589 7.335409704084929 1 0 0
3593 1 7.169812651311547 15.449381895386303 6.780150616964196 0 1 -1
2437 1 7.924205788205951 15.080517601506724 7.380599648015577 0 -2 0
3586 1 7.400385104337049 14.324382453882043 6.715787843569382 0 -2 2
941 1 7.949955639540793 15.902133557941891 6.107058685199348 0 -1 -1
2125 1 6.4329438811147694 13.975622659412965 7.070211334819348 0 0 0
3093 1 10.433645953278008 13.99181708070034 7.767295750811375 -1 -1 1
3702 1 10.908988934624006 13.54953338593712 9.58834966000292 0 -2 0
2945 1 10.551300621591032 13.421840405997886 8.630481545936048 1 -1 -1
2455 1 11.906082607343041 13.260702786220607 10.2121080014406 -1 0 1
2155 1 12.052227801495103 13.458836778549053 9.215653896856573 1 0 0
320 1 12.378925299464818 14.176642829403407 6.3980357656201905 0 1 -1
2326 1 12.668090530667877 12.951448901232558 8.303844773318582 0 0 0
1209 1 13.54993576262251 13.137271798814483 7.9501970844120855 0 -2 0
3411 1 12.811263334888414 13.533714133084649 7.065642627221841 0 0 0
241 1 14.729203297908928 14.734337728583572 6.902265531629926 -1 -2 -1
1165 1 13.473381266508326 15.533275467901131 8.518322203409054 -1 0 0
3935 1 16.0596348232784 13.144276796483414 8.02614698955632 0 0 0
2038 1 16.042836620968238 14.263081788000807 8.165902643261873 0 0 0
209 1 -0.6701094015162509 14.829511549133542 8.4893919124767 0 -1 0
466 1 1.5381370871991535 15.755683880845819 7.664155208943029 1 -1 -1
1445 1 -0.08196402366232203 15.735289351046944 8.770180953124008 0 0 0
350 1 3.093412844675176 15.25250295270629 7.507525931552918 1 1 1
3147 1 1.1763004112067632 15.321230664205569 8.59267590198446 0 0 1
3923 1 5.683774011928407 15.156945348107705 7.897808102953702 -1 -1 0
3664 1 2.5625748373816046 -1.1564319479007352 7.861985776770924 0 0 0
1632 1 6.309349273599317 15.944476023431516 9.90902575565495 2 -1 1
3708 1 5.980575994175001 -1.2865309791775013 6.920248946198848 -1 1 0
1995 1 6.248874237479914 14.623582511658201 8.665089477343209 0 0 -1
3557 1 7.4162819670696845 15.91130355090571 9.187561231816085 0 1 0
1284 1 7.579752248883443 0.19519427070545325 9.693865211099572 0 0 -1
1581 1 6.84187506220689 14.779250326786705 7.713972726151447 -1 0 0
1859 1 8.868699603306856 15.712348516670858 5.613425126036977 0 1 -1
3667 1 7.3252048130862075 -0.1806918616825497 5.479595805436495 -1 -1 0
2422 1 8.221719075243305 16.194803701589677 7.240414359300409 -1 -1 0
2751 1 10.380648732787447 15.298369007794868 8.290176413151588 0 1 2
469 1 10.719220450133994 0.34664492801202207 7.028684462640369 0 -1 -1
389 1 10.634025720001645 15.913231986621856 6.2672754107352215 0 0 0
2019 1 12.106860401580406 14.443788064755296 8.807589251092912 -1 -1 0
96 1 11.955628566985599 15.342097413316331 8.372258980407386 -1 -1 -1
730 1 11.151332747241046 14.929872418177482 7.607724647552649 0 -1 0
665 1 12.702316734101558 14.373821074214893 7.899431082053111 -1 -1 0
668 1 12.637590412401893 -1.2370683326635847 9.22016249114051 0 1 0
1791 1 13.720998238175028 15.397107199064976 7.384752624395276 0 0 0
2380 1 14.974404602453031 13.872695738492801 7.909718990926839 0 0 0
2511 1 14.817760629914208 15.747273471791662 7.1777742885954705 0 0 0
432 1 14.584935763725092 15.067080573593763 7.998640445843153 0 -1 1
163 1 1.0738486159689216 -0.3143094524224628 10.057059367647877 1 1 1
3464 1 16.05734886451991 -0.7637973570540894 8.915859088272251 0 1 1
3852 1 15.402678410558405 16.15092045599411 10.885433768347118 -1 0 1
1334 1 2.4746804780219116 16.156971914969052 9.38936009949554 0 -1 0
960 1 1.8020362437870543 -0.005774659758704059 9.346055842468635 0 1 -1
2011 1 1.589160303505572 0.21197980663413807 8.243591210144137 -1 0 0
2121 1 3.4985247974431415 15.586821237539738 9.71381152253471 0 -1 0
181 1 4.950815434684238 1.5810368774405865 9.276547037865594 0 0 -2
914 1 4.488649541059446 14.606183197245445 9.11778076467577 1 0 -1
395 1 3.814154768243454 15.651456272995077 10.66514133036144 0 -2 -1
174 1 6.449703410279722 0.6924168791731202 8.492178162039117 -1 1 1
2222 1 6.948548846610752 -0.5625491392135034 9.271191262670268 0 0 0
3408 1 5.591299129328549 1.6832765941963523 10.381823747117254 -1 0 0
2514 1 9.0350282810858 -0.5743754584461518 9.167555779594371 1 1 1
1504 1 4.500937003895603 -0.7507209406632446 10.227765493061113 1 1 0
2890 1 7.382923841976853 -1.1363623569216288 7.898536482027277 0 0 -1
3750 1 10.341876221079062 -1.0143201505313888 9.589589756397448 0 1 1
2953 1 9.69953706806003 -1.142533055902729 10.449509364184884 0 1 0
1748 1 8.368060588609266 0.005363965410254856 11.275663213734202 0 0 -1
2473 1 10.935559468731599 -1.205168662035997 8.650634174274554 1 0 0
714 1 10.979620229885604 1.3291516255566584 10.159564202902416 -1 1 -1
623 1 11.63739788528975 -0.39834124486764255 9.215980455402192 0 0 -1
28 1 12.437987364846345 -0.6753580331285949 10.040154136324663 0 -1 1
3803 1 14.186801855063802 0.4429728761963134 12.036311447257678 0 2 0
1850 1 12.900489210298346 0.13967145924221347 10.552361174276827 -1 1 0
3404 1 14.74889389701594 15.418095860395876 10.011486007996925 -1 0 1
3626 1 14.85759854911117 0.8069763688098708 9.282215762710049 0 -1 0
2365 1 0.0177946039618766 0.8805589997151841 8.89516036115621 1 1 -1
2436 1 0.43739653903758624 1.5873664099462066 9.897147262042589 1 1 0
459 1 0.09790375139911389 1.5730563527387544 7.917933448153015 0 -1 0
843 1 2.675265343347339 0.9398744922936655 9.526949252846753 0 0 0
1216 1 1.0686305395253055 1.0282611372303658 9.430477596679962 0 0 -1
2803 1 4.391676108446159 15.82765359376587 9.055048232690487 0 -1 1
1473 1 3.274092760313251 1.9261762059542913 9.615841271172638 1 0 0
2633 1 5.2872853459569065 3.079988233332612 7.770895336981962 0 0 -1
2864 1 5.185105226388734 0.4979015192692031 9.176724975465488 1 1 -1
3794 1 5.162544057242602 -0.8664829086604622 9.133096909952684 0 2 -1
2111 1 6.358756893984517 2.263619111103544 9.569350947090726 1 0 0
1342 1 4.874421232522644 3.564498810273893 8.747913841517278 0 1 -1
1401 1 4.964771046714265 2.4074528642471256 10.742236840145786 0 -1 0
3453 1 7.571880325259848 0.6836559848796304 10.83833459741632 1 1 0
2091 1 9.470442274227072 -0.22997759142277396 8.18874168652556 -1 0 0
2431 1 7.657899969665058 0.706750572904987 8.624033074819515 0 -1 -1
1863 1 10.28344205256763 -0.26785824276135695 8.915200969543355 0 1 -1
797 1 11.00108320762699 0.2710872300910476 10.211670294095388 1 0 0
406 1 12.141693852264511 3.240023116063618 8.51878365644623 0 -1 -1
1120 1 12.383617131470698 2.120088965675128 8.35889265761573 -1 0 -1
3083 1 14.384274078242978 1.9615425062994705 11.05527245543074 0 0 1
128 1 13.296479823904315 2.434856357117911 9.964954684574728 -2 1 -1
186 1 12.09628714588775 0.5457972261576918 10.078226752492583 0 1 -1
589 1 14.05369318115454 1.6393357560627013 9.92993221112115 0 -1 -2
425 1 14.460070372243468 2.5944973479045044 9.946346387787079 -1 -2 -1
150 1 -0.4352324043925686 -0.6684367580957327 9.159690636376782 1 0 0
3225 1 -1.216527047183013 0.011720434636641075 9.579787764529833 0 -2 0
1362 1 15.277710415387784 -0.6206177980188271 9.7914768494085 -1 0 0
1796 1 2.199995016001403 2.7976557428384314 9.332003487509494 0 0 0
1594 1 0.1313278668236657 2.356438872371516 10.653583158152987 1 1 0
2033 1 3.827017263095872 0.1498442552242234 9.934690679969602 1 0 1
1011 1 2.0117765549013886 3.0932195852311066 10.402507567762916 0 1 1
1313 1 2.9168140621543897 3.467450818370165 11.510125796808689 0 -1 0
1799 1 2.0188631437433657 3.193286745480979 11.57818559500021 0 1 0
846 1 3.065298095704522 1.5999396147343004 7.355083669238896 0 0 -2
2620 1 4.029289188108648 2.734427150786665 11.178116985802857 -2 1 0
2996 1 3.7267298362420442 2.7991768431014723 8.912660779139065 0 1 1
2484 1 8.130497718535752 1.4888837156877548 7.869525699096068 -1 -2 0
3985 1 6.3841871819077625 3.1133870424966927 7.576300726593013 1 1 0
2759 1 10.346133855036571 1.523760191568324 9.165448196790498 1 0 1
3469 1 8.026534188066288 1.3564691362356034 9.388247931789714 0 0 0
3359 1 8.727093512524382 2.4700785070172615 8.529190279437184 0 0 0
3858 1 8.71776173624515 3.09037441313148 11.216753024762468 0 0 0
3284 1 11.054824369554382 3.2142661331569142 8.952218667152136 -1 0 1
151 1 7.278052082378785 2.045529859535318 10.072367991417766 0 0 -2
2087 1 10.289920713897812 2.5366334944444895 9.690847395256231 0 1 0
3392 1 11.782133906223335 1.1571278260892184 9.203728751794422 0 0 1
997 1 13.111908864386853 4.226449965277436 9.51231873472949 0 0 -1
424 1 16.15583648194683 2.062923044768987 9.202878088327294 0 0 -1
1497 1 15.91618839321048 3.5284862179988785 9.023221719625827 0 0 0
1900 1 -0.2216507264580101 2.026729413130882 8.876584150606442 1 1 0
2728 1 -0.7574678587839623 2.693662587760855 9.805865746375325 0 1 1
2263 1 15.081715574390309 1.7088224340162936 9.804626431331513 -1 1 0
3598 1 0.9043426192293684 4.486288341026718 8.757960915838519 0 0 1
2604 1 15.25180438943569 4.105981100208681 9.815558336360349 0 0 0
1085 1 -1.0411593463624094 3.874383692220894 9.759978986086136 -1 1 0
1840 1 1.7875328628257887 3.9155180522984008 10.84776126770609 1 1 0
1814 1 3.530618201398167 1.1897950289537094 8.898857213968864 1 1 0
3639 1 3.6647936177441967 3.5518490000807574 9.697155364591225 0 0 0
1317 1 6.057563418430864 4.681712647431594 9.696342424158665 0 0 0
776 1 3.8477472048722534 3.731293843703587 8.156032477984883 -1 1 0
1884 1 5.0422077795712505 4.598870740930026 8.305047477285802 0 1 0
1955 1 5.056902668208433 5.013412914317939 9.512291780912733 0 0 -1
1037 1 7.413394848204426 4.588066222977478 10.795723377376545 0 1 0
38 1 6.85889688813424 3.1077601259543863 9.52526105337546 1 -1 -1
1425 1 5.559115908026208 3.2384814701699813 9.752151431863158 1 0 -3
3426 1 5.477275206872929 3.735025048423699 12.123753904268586 1 1 1
142 1 8.604355770604336 3.0616522881926596 7.4246376505945975 0 0 0
3456 1 9.11028968241965 3.852165718903363 8.627800517271073 0 1 0
10 1 8.271815677905131 2.4619939973368465 9.694549622555684 -1 0 -1
2711 1 9.183928406473969 2.897997507946255 9.571688484693775 0 0 0
596 1 10.533131486824951 4.1624229160270465 9.79262430140296 0 0 -1
2548 1 9.50678834233082 2.501140950045425 10.531030060914913 1 0 0
3520 1 11.194754561716056 3.395009972000719 10.019743226287465 0 0 0
2559 1 12.612553896785684 3.733372006020401 10.2551439029206 -1 0 0
2303 1 14.691430526023982 3.4077554420282556 10.789650622518481 0 1 -1
1913 1 14.626046967041344 4.698474150502324 10.552175935753352 1 -1 0
3248 1 -0.784295570174629 5.80330366007515 10.064988642834221 1 1 1
3425 1 -0.362333890390256 6.299664293510083 8.743173267636246 0 1 0
2119 1 0.8108223191374644 5.139817628563219 9.757787428598379 2 0 -1
2237 1 -0.8074817402599295 4.244713500082769 10.783730048443068 0 0 0
35 1 2.7209016005744084 5.331378655010235 8.740861010198344 1 -1 0
3788 1 1.2172015532105567 4.886738466251233 11.124607114633491 0 -1 0
1183 1 5.293935847189986 5.236953763858256 10.476914954926693 1 0 0
330 1 3.8362100781582233 4.613269117360784 10.176545215281381 0 0 0
3596 1 6.3883368635454465 4.2656228782513 10.570551962881058 0 -1 0
715 1 4.464155001882719 7.204850483177614 11.263156995513123 0 0 0
3044 1 6.097110839693703 3.01366594429758 8.643219011278047 -2 0 2
3817 1 6.026994461420242 5.78390606688894 9.604330687992627 0 1 0
545 1 7.182653685758389 4.416310691741798 9.541011486306331 -1 0 0
1383 1 8.778423101776474 3.5904804319752026 10.261979510603682 0 -1 0
56 1 9.490055632132028 6.155881300658829 10.498980883193934 1 -1 -1
3623 1 8.098819048522882 3.768307926092165 9.327981344212501 1 -1 1
1635 1 11.387185830850543 5.366272982310075 10.32448685459468 0 -1 -2
2990 1 10.882352129464717 5.928789760224835 9.572733668761005 0 0 0
1685 1 9.907017963160323 5.8916028002355985 8.770478720023329 0 0 1
2058 1 12.274844443570345 4.119501317924637 11.151353866630371 -1 0 0
3071 1 11.084301184454697 5.532760164486614 8.307288436497807 0 0 1
2211 1 11.51252089625211 6.579091141483155 10.480514134361641 1 0 0
2717 1 11.498229789059485 4.109515020229737 8.830141050461725 0 1 0
1450 1 12.342672230220098 6.19122851728307 10.876581105201913 -1 0 1
3383 1 -0.9040753003320525 5.187158830887085 7.696302741164123 1 -1 1
3755 1 14.949717451437191 4.619383546992024 8.595758135031494 -1 0 0
1838 1 15.711067534261314 7.735402650445787 9.899304088316299 -2 0 1
3964 1 -0.9587530639439019 5.303906192196961 11.09070106170306 0 1 0
1377 1 0.6232358558891293 8.413989281703042 10.014984416264983 1 -1 1
1598 1 0.2573730027421144 5.415964996715461 11.15077864260371 1 0 -1
500 1 1.740691724427737 5.86952884811738 9.56708642854211 1 1 0
48 1 0.9756776403338772 5.929215443042938 10.242097395517863 -1 0 -1
3625 1 -0.8077341287623871 7.902874727949783 9.715559525030308 1 -1 0
3618 1 2.8717001688550052 7.459204609786401 9.409620494547001 0 -1 1
3175 1 3.722044788537131 7.300639340505294 8.512533148366945 1 0 1
975 1 2.725989595575742 7.811708539716832 7.919319612477343 0 -1 0
313 1 3.5125747954811137 8.372373823327923 9.979269750652746 1 0 0
2758 1 3.869938924778813 6.572603837663975 9.689594523710793 2 1 -1
108 1 4.772441005950707 6.986190659738488 8.594042663309013 0 0 -1
3209 1 6.162796097860974 7.158408490726224 9.520052976677487 -1 0 -1
2985 1 7.2456601439613735 6.398058465550252 10.330144296622995 -1 -1 1
1378 1 8.64323850450805 5.963411413370635 8.824554224656104 0 0 0
3989 1 8.51112369676556 6.389587911352283 7.54145240684298 1 1 0
2937 1 8.574401529043142 8.074131190030695 8.320368527258948 -1 1 1
2597 1 9.24884271350828 6.807170147771609 9.275221309472624 1 1 0
204 1 10.239103422435052 6.84528230997422 8.87779279807346 0 0 0
1141 1 10.308396303924114 6.393276107531684 8.02525394557268 1 0 1
2342 1 11.129620211543534 6.962214426449217 9.424972351263296 0 0 1
2302 1 11.209579596350382 4.3608405788932085 10.666789783198551 0 0 0
736 1 12.053432570948221 5.60548105990641 9.61571691310355 0 1 0
2107 1 12.405074982075885 8.943373872912181 12.997170866177882 0 -1 0
2034 1 12.438331040083963 6.911121566996963 9.852610450804306 0 0 -1
1750 1 14.424582339387596 5.775853635716735 10.295483928922394 -1 0 -1
1924 1 15.692125898166246 5.888443329451679 10.341638715606281 -2 -1 0
1386 1 14.862567841779228 7.504843355363027 12.124436110722089 0 0 -1
3836 1 13.337959045971871 5.921279154633188 10.76476170364594 0 0 0
2554 1 15.920908911108636 5.792122633903514 12.396432156568732 0 1 -1
2667 1 15.880459562915458 7.968800798152083 7.801687955824049 0 1 0
64 1 -0.5367488849153111 7.273228399800757 10.547391196389013 1 0 0
2567 1 2.562480747307809 8.77699131545219 9.390322148688375 0 0 0
504 1 0.8796989621586846 7.84144722494268 8.0950735259936 0 0 -1
2000 1 1.8030093469136932 9.962393014692875 10.728404784486026 1 2 0
295 1 2.1437482484443007 8.144918637198783 8.658436992947024 0 1 0
1195 1 2.646497543455931 10.182761383520099 8.47285580672158 0 1 0
1675 1 6.033307663025219 9.604472982056484 11.576172382938937 1 0 0
1032 1 4.319683040612786 10.206047039928047 9.625102586978514 0 0 -1
2255 1 4.986995591248117 7.140942574794709 9.90537976113185 0 1 -1
2359 1 5.782315423972625 8.861804720867307 8.732457976012675 1 -1 0
1217 1 6.669404861031482 8.241251662798762 9.37911728890309 -1 -2 0
992 1 5.1933309628149855 10.706856468205052 9.881944168235727 0 -2 0
44 1 6.0160764738619905 8.060030087177333 10.185285379866292 -1 -2 -1
2624 1 7.2199883588900295 9.045894835363322 9.724360602193205 0 0 -1
433 1 8.518139695863846 11.008126777482751 10.103991171818192 1 0 -1
3516 1 11.069108641374187 7.324452175122625 8.378857039409844 0 -1 0
2395 1 9.978560671362043 8.025179774265482 9.780000688842987 0 0 0
979 1 10.535553186992374 9.331541993766013 8.623153905022994 0 -1 0
558 1 11.998909666177921 7.6529608356919 9.275594647808399 0 0 -1
1628 1 10.412725194349902 8.196969628176578 11.574330273387744 1 0 -1
3313 1 12.944202684790303 7.906421244959038 10.019746357583912 0 -1 0
3595 1 12.350747684500162 8.724372988417683 9.476624629593376 0 1 -1
3926 1 -1.1121583821839196 6.327900185159067 11.004278386673942 1 0 -1
2152 1 14.957446601115784 8.527083657249364 10.829806437599364 0 0 0
3889 1 15.74197358295297 8.698657353447821 9.430174800336353 0 0 -1
2969 1 -0.8750476955497829 11.453015318839874 10.87281922786699 1 0 0
2325 1 16.105531498519426 8.207383324655916 10.980810017960168 -2 0 1
116 1 -1.1459659338071666 8.630279696397613 8.458515035357085 0 1 -1
2988 1 2.0488374410433265 8.177582474566275 11.893487338736312 0 1 0
1241 1 16.139980812936678 10.00173267760029 10.08049537573795 -2 0 0
311 1 -0.1131737678297493 8.642166988402662 9.34392534981797 0 0 1
2141 1 -0.48958979559308213 10.908209013468902 11.688306236123951 2 -1 0
996 1 1.607163042298981 9.115350115348868 9.679988597201358 0 0 0
2212 1 2.672839655994129 9.864186520346346 11.555869833304035 0 -1 0
1677 1 3.3265116887036497 9.496263502674577 10.519678704212563 1 -1 0
3867 1 3.7378172718517986 8.319101485100822 12.084265470673635 1 0 1
3553 1 5.088961090996527 9.767260417812132 11.220459029941312 0 0 -1
1420 1 6.920074253356699 11.42832432480183 10.923862798683443 0 1 -1
2552 1 5.69329610725393 9.962956541618997 8.980623476152997 0 0 1
3106 1 4.788463613781504 11.688846793361607 9.451014029845398 0 0 0
2847 1 5.82891289276918 11.593717959467556 10.122873690089252 0 -1 -1
3465 1 6.5409199808755885 12.32143940187642 11.53697879171271 0 -1 0
2118 1 6.32740280450458 10.465924123422294 9.843584709813584 0 -1 1
2294 1 6.147939541728779 9.353214778165503 9.644143361958749 0 -1 0
3701 1 7.811397381447376 10.920484502385978 9.17241342635918 0 0 0
2481 1 9.634285038315237 10.71801065481413 10.00125827558645 -1 0 1
2891 1 7.4912397972818905 10.830579986950726 10.210512681686017 -1 -1 -1
1250 1 8.82233681596525 9.924631628681965 9.526704673686107 0 -1 0
3076 1 10.253803841292122 11.842391489428074 9.71105228430242 1 0 0
417 1 11.360577304176399 9.94132441881852 9.565914520463513 0 -1 -1
3715 1 10.328844801567971 9.745289404234562 9.671816286373204 0 0 0
2017 1 13.316506328441292 7.031797983469593 7.848691561019281 0 -1 0
2332 1 13.453027951955384 9.114330957100812 8.34883003741757 0 0 0
99 1 13.454889400608026 8.598670937363966 9.271013210010786 0 -1 -1
3024 1 15.486142724041752 11.494240684480873 9.34030009695015 -1 -1 0
2704 1 15.203229164896015 8.647910073509873 8.535408298199085 -1 1 0
1738 1 15.29169373495738 7.384776577655417 7.130952349776681 -1 -1 0
813 1 15.673006248236312 11.884133752661542 11.121753014934905 0 0 0
2068 1 2.0040027781860883 10.087565626976017 9.666525171929473 0 -1 0
2718 1 0.7219406267064441 10.603699939198991 10.050690572036007 1 0 0
2931 1 0.6985319811209947 11.389270087743236 8.721147963482325 1 1 0
2209 1 3.890743506534542 10.811464375740886 10.322071754542453 0 -1 1
464 1 1.7954194036686362 11.158049860044164 10.003713524033204 1 0 -1
2825 1 2.8853579481974103 12.432860661806139 9.554015744344188 0 -1 0
57 1 3.7025868099774755 12.102509169137393 10.612405416170088 1 -2 0
597 1 6.213830658294847 12.57783769119461 10.44454766998841 -1 -1 0
299 1 8.968315522534146 11.519481091511883 9.245338246142065 0 0 -1
3211 1 8.983809954772662 13.610893920606381 9.641652796444694 -1 0 0
853 1 10.732571591932963 11.550720257152296 10.629104138110263 0 0 0
2084 1 11.01319910550957 10.312342977023677 8.608415180952935 -1 0 1
2433 1 9.436775755360205 12.03018610115163 10.273053750893924 0 0 1
2681 1 12.060616746085842 10.5939522896568 10.41351932697939 0 -1 0
2450 1 12.74336054732534 11.4717163948074 10.089493738958378 -1 -1 -1
951 1 12.486204881280516 10.588492404839249 7.392840496730987 -1 1 0
129 1 14.424048082382107 10.312933694339643 8.655868325498933 -1 -1 -1
735 1 13.19959719766697 10.707817443003151 9.48749653093483 -2 0 -2
731 1 14.926868994343916 9.43327537241094 9.138758362141655 -1 1 -1
1314 1 13.648926341151174 9.902580162835887 9.37295401179159 0 1 1
539 1 15.403382397960055 9.24683120727335 11.506460200520138 -1 -1 -1
2680 1 15.421251701999381 11.02810440189321 7.517609100565618 1 0 1
1907 1 14.796299960831792 11.462586349947 10.757065187036142 0 0 0
2655 1 -0.49864467848534033 10.075142804244043 9.51081281780974 -1 -1 1
2464 1 0.4053370800660703 11.380997867710855 10.731994252185656 0 0 -1
1848 1 -0.7900980196960976 12.918297013701363 10.451009158169791 0 -1 1
2658 1 16.051958749871048 12.34709690621994 9.097830236928338 1 -1 0
461 1 0.2314494127962745 12.64349594621481 10.416346525719556 2 -1 -1
2458 1 1.5012079180314615 12.06250709736385 9.963751460427616 0 0 0
2416 1 1.3081188488023168 10.798689901044636 11.101875787826165 0 0 0
1908 1 4.429841679622954 12.551590734092516 7.895759647443054 1 -1 -1
52 1 4.534551830823373 13.563771435427697 10.706967041141606 -1 0 -1
1552 1 4.066588910387504 11.765114393476212 8.727768980236736 0 2 -1
563 1 4.019872475998487 12.567447772486013 9.546817731087605 -1 -1 -2
1166 1 7.025474154907297 12.186591219830579 8.171115217716745 -1 0 -1
1580 1 5.2555032465683595 10.981829195324627 8.754987714675627 0 0 0
2001 1 6.155510291018951 12.873616607172256 7.423594309533071 0 -1 0
465 1 7.758630587922838 11.832758124741856 9.869866078577964 1 0 -2
670 1 8.456241196512773 11.867571019119659 8.214519522210821 1 0 0
955 1 9.626028458824308 12.614960577233667 9.256796282793646 1 -1 0
1937 1 9.77878642981684 13.152289754020899 11.604602028368262 -1 -1 1
220 1 12.695578375685107 11.462825693044635 8.881713697349403 -1 0 -1
3171 1 13.40291141300481 14.540435303209744 8.960331929524544 0 0 -1
673 1 15.226782548495194 12.859259217532305 8.630746605306179 -1 1 0
1259 1 14.595643704089763 10.235359399193609 10.65066867516904 0 0 0
2184 1 14.036915211220633 12.969317541271488 8.95280486461832 -1 -2 0
512 1 -0.42688525701206825 12.693931932629647 9.47342748292307 2 -1 -1
1609 1 14.24090958239628 11.095389275233828 9.328072869909859 -1 -1 -2
3286 1 -0.9828329099881083 13.458922516912526 8.90149706271733 1 -1 0
2735 1 0.2945860650186878 14.856344101849956 9.292310330017683 -1 -1 -1
1331 1 -1.2192395889384455 14.533225373155117 9.25027583785725 0 0 0
902 1 -0.3624446737110947 13.887177150122449 10.01578567510107 1 -1 0
2230 1 1.1627101419702464 15.609779834873379 10.02495014009607 0 0 1
2841 1 0.2790183608200614 12.999726331893351 7.901050764334135 0 0 1
1655 1 3.3074648487755054 12.9519995101152 8.141441457890565 0 -1 0
3682 1 0.3471004051340516 14.814363774708845 7.9699398505434225 1 -1 0
3482 1 0.856595775102134 13.412645528046722 9.933580345539571 0 0 0
1597 1 4.164407813947383 13.800024346941258 7.6681386182468 1 1 -1
2135 1 2.952644574020164 13.536293126468001 9.573437028589844 -1 -1 0
51 1 4.686917776660249 13.149259373702998 8.870156946163254 -2 0 -1
1665 1 6.915458537432158 13.44218121783452 10.946590616158451 0 0 -1
3748 1 6.156480377213101 13.810069832133467 12.337510493460863 0 -1 1
2916 1 7.905609209905178 13.5584419155132 7.251276452890611 0 -1 0
1570 1 7.672390152926651 15.402779729008465 8.382719507155167 0 0 -1
126 1 7.725943556527033 14.371310023471246 8.460240409487659 -1 0 0
560 1 8.63962148559252 14.370598825745867 10.366211546020628 1 -1 0
2061 1 9.556060701590418 13.918921502091882 8.462422869811036 1 0 0
1306 1 11.133584020089778 12.159736785411841 11.358111652546178 1 -2 0
3064 1 10.864271471597585 13.508331043368539 10.714963214163046 0 0 0
2003 1 11.11969960203234 14.743153290919395 8.740518344979886 -3 -1 0
1714 1 10.713918922158179 14.594559255495959 10.251838234135393 -1 -1 0
3020 1 11.562998886531567 14.862536723412646 9.665570683692529 -1 1 1
3884 1 14.400613387581734 14.394025081535782 9.609064025297684 -2 1 1
2732 1 12.45043231912745 15.22418339201133 9.21334164364614 1 0 0
3236 1 15.431960158810504 15.05212910981961 9.314761139798422 1 -1 1
3544 1 14.78082856211229 12.389840620988737 9.634942255801816 0 1 1
2991 1 14.11672223972397 13.970128951498198 8.711974604888846 -1 -1 1
2815 1 0.07901113312535046 -1.1725708745295949 10.587704312148539 0 0 1
3005 1 15.596273727436692 14.275952978897411 10.127756928384807 -1 0 0
2218 1 -0.9734462022974415 15.612831448576454 9.331306071344772 0 1 -1
2754 1 0.30961948148931895 0.25182609224842856 7.75981125063527 1 0 0
1931 1 0.2401789534492953 -1.0193571377887718 8.162217852106874 1 0 0
1200 1 1.3828834014961657 -1.1079225782403246 9.14122332841856 0 1 -1
1036 1 3.608319542372798 13.68631697657802 8.784573081332443 1 0 -1
2021 1 2.2101858498520257 15.570118100427177 8.540970993698641 1 -1 0
408 1 2.859261511432493 14.684560434186107 8.29798792719688 0 -2 -1
3846 1 5.842447943325085 13.585039482780525 9.224467570568088 0 0 1
1462 1 1.8581012585747465 13.157519449092346 9.930552084720933 0 0 -1
3939 1 5.07289222638384 15.261191672345639 9.803820415490584 0 0 1
3713 1 6.953707182357933 13.740382588155414 8.814311486604952 1 -1 1
495 1 5.9407514812020725 14.57348670903034 9.603269130295688 0 -1 0
3644 1 7.915370756031136 14.034075737946024 9.654992837694607 0 -1 1
2056 1 5.752564356883811 -0.2433017993437021 10.82566178438086 0 0 0
480 1 6.266959079477691 14.991225353428447 10.627559263783985 0 -1 0
961 1 8.045699898442203 -0.8925146144037839 9.549665694905512 -2 0 -2
3994 1 9.98170627029646 14.250071275478302 9.40458777101728 2 0 0
3477 1 8.640107789610525 14.787898148748685 6.828411955807804 0 -1 1
925 1 13.450933749454622 15.395148581122005 10.65403441403843 -1 -1 0
2347 1 9.752835079973158 14.2033233793984 10.716726961282308 0 1 0
1744 1 11.819292470594979 -0.36194521244658595 10.738017287121801 -1 1 0
1293 1 13.593539661031786 13.866773704126144 10.269245379918214 -2 -1 0
3153 1 13.44630093956782 -0.10037059580995811 9.63976701315895 -1 1 -1
1922 1 14.207026834940036 -1.224889941971215 9.88394486968428 -1 1 0
1970 1 12.321036394351319 15.804767165931224 10.202959602616223 0 0 -2
2372 1 15.177097707844595 16.080443525593914 9.187880970222064 -2 0 0
2219 1 1.430098896591455 0.4092859325157361 10.786485159113676 1 0 -1
3992 1 0.2924353144772047 0.6081525220028234 11.883012839369684 1 2 1
2371 1 0.6225383084831935 -0.0724757766239068 9.00968357274617 -1 1 0
2530 1 1.1506032049968673 2.0339663985089853 10.780938507896519 -1 0 0
3709 1 1.2094571362046866 1.2578635339860007 11.559161264016081 1 0 0
2050 1 2.2718236513483863 1.2645436522923394 10.894245019587139 -1 1 1
3780 1 2.1418709240707345 15.129715582223803 9.672189543940766 1 -1 1
3120 1 2.623066696334928 15.978454146609412 10.716290618396346 0 -1 -1
1595 1 4.7436649886398845 0.4094737512260267 10.814457551448307 2 0 -1
3809 1 3.6554606087130193 0.6935378264216203 12.519738248546174 -1 1 0
2379 1 5.3512572114911245 -0.7702368096037963 11.819790259476166 0 1 -1
784 1 5.546036945699192 0.5234755235580866 10.157435596968982 1 1 1
2883 1 5.952984809958811 15.613510858467638 9.097764515780005 -1 0 2
774 1 7.161614207829974 15.318532164878668 11.172178809240146 0 -1 -2
1244 1 6.420612702108411 0.2011430442090385 9.609565134238162 0 -1 -1
3915 1 8.666653727032813 -1.103349503873621 10.581067787291726 1 1 1
2408 1 7.524157992251562 -1.2281746259956439 11.295692042781006 -2 0 0
1020 1 7.755504998671979 -0.6197748813720135 10.498973522112514 -1 1 0
2270 1 9.361679030296923 1.2292423749649974 11.056170741305605 1 1 0
2466 1 10.372423903323426 0.1790718659969075 12.063718485191465 -1 0 0
3674 1 9.93852306973216 15.647683249739856 9.692805646650275 -1 -1 0
2553 1 11.036767211875237 15.777391150726285 10.101101511973587 0 0 1
1455 1 10.293209944200136 15.598998865489367 10.82226417380103 0 -1 0
3306 1 13.205171240465377 -0.9867968621642091 10.653453771140986 -1 1 0
3126 1 14.853437191307055 -0.8708767882108198 11.642459204604158 0 0 1
2467 1 14.62937745899949 -0.9581122329284812 12.729151360568284 0 -1 1
1669 1 15.242528497803 15.680203595159036 11.823619189279306 1 0 0
2071 1 15.735496182826889 -0.3703786368508989 12.182551040216689 0 1 0
293 1 15.114197241553189 0.08321948969175508 10.792069717579988 0 0 -1
1977 1 1.0987478884481527 -0.7805822724352375 11.053925713359156 0 1 -1
1233 1 -1.2940414072976871 0.42640616396924425 10.559795424857931 1 0 0
815 1 1.0176675047780273 2.340748870501204 9.648467292019253 0 -1 0
405 1 4.112408276407394 1.644347687613743 10.92048208150694 -2 0 0
1518 1 1.4832171230567623 2.305996092871366 11.847023081523536 1 0 1
2103 1 1.0669013381431292 0.012189937937564732 11.670201791473376 2 1 0
903 1 3.3808166073508907 1.1495499758937031 10.454550428865826 1 0 -1
1585 1 4.431861215249033 1.074481185511452 10.136879241827817 0 2 1
3029 1 5.777133081872902 2.138957602308648 11.309877931038995 0 1 0
2195 1 6.443191334981107 1.6945859733084623 12.050310376668566 0 1 0
1145 1 6.976174313008004 1.128692223938116 9.80493855976032 1 2 0
246 1 4.938258084832948 3.211920592638932 11.31515517457777 0 1 -1
1801 1 8.878534100143387 0.5735632475313859 9.269386708398311 0 0 0
3159 1 8.331172372216924 1.6714790767809884 13.357907726564177 1 1 1
103 1 10.143601982565945 0.5410431613752016 11.020146861399523 -1 0 -1
1415 1 9.992925589227617 2.4120132567022674 8.689727817879103 0 1 0
3241 1 9.814502661760285 0.09882343604818722 9.987266477965605 0 0 0
372 1 11.706951076774294 0.39570381994015347 12.064568969217365 0 1 0
2814 1 11.325962289110446 0.5852865556385287 11.140882354867005 -1 1 1
826 1 12.8352172839504 15.591230131406718 11.578333786309537 -1 0 -1
2865 1 13.667105438367642 1.1134563993485949 10.752972816369278 0 0 1
3921 1 14.101183895444978 0.43442961493398213 10.152647699781177 -2 -1 0
1229 1 15.52230011570547 0.5303248003555074 11.759512233926703 -1 1 -1
415 1 15.783841361234593 0.9526783840235162 9.812649002310206 0 -1 -1
2343 1 16.036635192446397 1.1890251807966035 11.161756169595181 0 0 0
3483 1 15.006572563965396 1.6684610373019662 11.73946874512919 -1 0 0
698 1 -1.200031767909715 2.974061028167781 10.677228423622068 0 0 -1
1503 1 0.6427252587287517 3.064897502452486 12.201819998721083 1 0 0
2768 1 2.2954364027514056 1.948834643026887 10.08997223450983 0 1 0
2009 1 2.2958917650258703 2.277043952221495 11.098010915842602 1 0 0
3055 1 3.688011690103643 4.315858192636798 12.290910981060863 0 1 0
2173 1 2.363393904495996 0.9991917202111358 12.751896476144278 0 0 0
1252 1 4.2353563739916265 2.1787153123292904 9.905263904554818 -1 0 1
59 1 4.727944530617357 3.9714983742553276 9.676116527410766 1 1 -1
2740 1 5.2761000171251 1.9248103999320292 12.346882400114152 1 0 1
191 1 6.247041035211288 2.790700313925015 12.094678432871763 1 0 -1
3395 1 3.348031458254903 1.9024681456012114 12.374381955522 0 -1 1
551 1 6.062370298697006 3.48146402165022 11.294784202757565 2 1 0
2499 1 6.626440991236584 2.767392469823565 10.493755405094781 0 0 -1
817 1 7.40930036951289 3.588120414689967 10.4961675648797 1 -1 0
1543 1 7.630690927201508 2.6788604795460715 11.023837674390297 -1 1 0
535 1 9.919888957804591 3.3377681275411186 11.7231943847966 0 0 -1
3849 1 9.76673000262547 1.6486197443004884 10.189489006835366 -1 0 -1
2385 1 10.433543830146489 2.6120504568582605 11.327304828713684 0 0 0
3268 1 10.772912472845505 1.6071316479530524 11.336397199958997 1 0 0
1373 1 10.235780470687843 2.1647872071051317 12.591616419113084 -1 0 -1
2956 1 12.577777080745365 2.307243299463089 12.481935814033731 0 1 0
1722 1 11.214934050388134 2.158664973460192 9.192483517941765 -2 0 0
3474 1 14.179162685508231 3.8059264883143005 9.902045594969334 0 0 -1
2328 1 15.57290744866042 2.8950389604872626 10.065250614592612 -1 -1 -1
1137 1 -1.1066132507052964 2.2886031154265467 11.369478216856114 -1 0 0
1938 1 16.21646266947132 1.795288342207173 10.301783386197782 0 0 -1
2172 1 15.374503054508 2.184511871493305 10.878800970579634 -1 0 0
345 1 0.8712260237066505 3.0524998972907724 11.107204013261557 0 1 0
1246 1 -1.121825931434181 3.4867777044699277 11.575967104727614 0 -1 -1
2432 1 14.09753917436196 4.55090616133988 13.520117837027543 0 1 0
30 1 -0.33593903401004077 2.6263366010912956 11.936417271542414 1 1 -2
213 1 2.813359159553162 3.6330661122940393 10.4871767293736 1 0 -1
1149 1 3.3259241662629986 5.774625502374556 10.311625853558601 1 0 -1
2368 1 3.2060212892707733 4.793169450883253 11.023186184963372 -1 1 0
564 1 3.759353583811829 4.012836964465499 11.110173453053552 -1 0 0
2512 1 4.811474353470246 4.3007517521151355 10.640722134114009 0 1 1
2440 1 6.356491931427788 5.427561286570171 10.733694059672121 0 0 0
360 1 7.0664319261170245 3.8561402810037135 11.875969619172778 1 2 -2
3328 1 6.187764850584992 4.384560885940092 12.215426926671773 -1 1 0
820 1 9.367375442614945 5.526223875280304 9.752461340617177 0 -1 -1
2628 1 7.99054162208817 3.8715630960714558 11.543871418849067 0 0 -1
746 1 10.190069849797505 4.894568787560055 9.013770599307064 0 1 0
555 1 10.031858653100034 3.6693475328586382 10.625692551941244 -1 0 -1
2151 1 10.58654938524009 4.223806215421838 13.65733012403567 0 0 0
1380 1 11.973650321179996 3.247758058967144 11.864459382648203 0 0 -1
1717 1 11.872268285991884 4.4589454467080145 9.994327887214585 0 0 1
2 1 13.555081354521306 4.930580441740943 10.47342466741468 1 -1 -1
848 1 13.924768162537921 4.12435689848005 11.13406506951703 -1 0 -1
862 1 13.990976388096923 3.0325543686590573 11.522046008190392 -1 -1 -1
3774 1 14.709715956491767 3.6279352494942163 12.027028153545285 -1 0 0
3742 1 14.486474552607232 2.4169867641427825 12.19753632988319 -1 -1 1
2611 1 -0.5308965587870084 4.70036912108045 9.91113734758174 0 0 1
2980 1 15.436382674224692 4.279284633498745 11.021827961653553 -2 0 -1
934 1 15.318218468737829 5.691422358613121 11.271773470584765 -1 0 -1
1576 1 0.42293268047835686 4.153513828345063 11.159258590695622 -1 0 -1
2463 1 0.9815519063997029 6.099312670491669 12.313214144708617 0 0 0
1402 1 -0.2535574914970924 6.054819997866005 11.731689655240274 0 -1 0
2842 1 2.7345785930720643 6.202393161547543 9.380058101398625 1 1 1
3185 1 4.172416853915005 6.282137026814483 11.681638154661384 0 0 1
2687 1 5.232929931027061 5.859594357938997 11.636601697776259 -1 0 0
3905 1 4.747553484920655 8.268033236622383 10.769814205252706 0 1 1
677 1 5.852429851498919 6.409210597076057 10.485677404418503 1 1 -1
1006 1 8.424961532902094 6.512726216182608 9.790307221878283 -1 0 0
2747 1 9.697934045362187 4.764050335142079 10.66250412375966 0 1 0
666 1 10.3977501053089 4.528569061725245 11.307791145853765 0 1 -1
1499 1 12.10254622653938 3.572154550090331 12.873917773091234 0 0 -1
333 1 12.195866629386263 4.649725475221392 13.377138218241583 -1 1 -1
3804 1 10.167576985375351 5.58123007784955 11.69899288813287 -1 0 0
649 1 11.216836535390858 4.514058499513705 12.117903970300773 0 1 -2
2201 1 13.58028667647752 5.882297261637559 12.570779830891645 -1 2 0
1926 1 13.886971905096638 5.1338439310587365 11.527443677586003 -1 1 -1
2802 1 13.71308612157089 4.004893458971648 12.16448440811378 -1 1 1
2459 1 13.928696537771787 6.553622766484583 11.69088226895789 0 1 0
1833 1 15.028698325500883 4.706726443151658 11.831294550908293 -1 -1 0
798 1 -0.13553478720540957 6.327763692258132 10.656541664337814 1 -1 0
2370 1 0.29603924610692056 7.922979948902459 11.167327774108117 0 0 0
2903 1 0.5609009497818713 4.702569094550099 12.462092767577413 0 0 -1
1982 1 1.6489783667803053 7.115303580015224 8.696421231514753 1 0 0
3160 1 1.4256263628104788 6.501780161543003 11.254402498961278 0 1 0
1783 1 3.197300734395909 5.927424771256281 11.462299913363287 -1 0 0
1837 1 2.1561589744859644 7.1564821299376415 10.121993284226562 1 0 -1
1780 1 3.8304550789243645 7.941445289502354 11.070973086975378 1 0 -1
2853 1 3.2815033640914075 6.914042715351803 10.5508401612183 2 0 0
2771 1 6.679496694005072 6.598731010425809 11.489776610881911 -2 0 0
605 1 5.618039263881726 8.888645698624337 10.737010380059564 1 -1 1
3694 1 5.001471965100364 8.73085823812233 9.495310104549304 -1 0 0
1996 1 7.780685136580242 7.226590733682309 10.880766953972046 1 1 0
1480 1 7.698443597728787 7.595204709344371 12.443240574149458 1 0 -1
3173 1 8.535133181047103 7.2628163835310104 11.746708346438247 0 1 -1
3315 1 8.319623773060792 6.9140776078652575 8.81990807243816 -1 0 0
2672 1 8.318906823497718 6.082416455795822 11.093188891332506 1 0 0
3360 1 10.564352716268846 7.02333070806557 10.973572158321836 0 -1 1
888 1 10.63433783724452 6.0112163202539755 10.732504086153813 0 -1 0
467 1 9.979163658653135 9.18030063424091 11.78786972932268 0 -1 0
603 1 10.085584833643585 7.033227777290408 10.15190302213049 -1 0 -1
3912 1 11.947755308980248 5.02365522183476 11.256333581336103 0 1 0
2180 1 11.890062618732507 6.5628012854279465 12.22893510981291 -1 -1 1
2403 1 12.017761175460988 7.285329680171342 11.079520204328693 -1 0 -1
1986 1 13.069269319195206 4.943951525941707 12.751644406315348 0 1 0
2284 1 15.13234997458953 6.829976092721262 10.164051762044929 0 0 0
3158 1 12.836138224823157 6.583177248246575 11.877166698546809 0 -1 1
1649 1 15.199103111381273 6.841814456266716 12.826849297072117 -1 1 -1
3507 1 15.738963893531164 7.662645844477984 12.681036002000347 0 1 0
590 1 14.256501971741162 7.628807704262856 10.796809156121888 0 0 -1
3343 1 -0.5195610842941911 9.012961646986 12.574434596319762 -1 1 0
3745 1 -0.11063583080306483 7.871649394943811 12.670425331238278 1 -1 -1
2335 1 0.5101747635256042 9.649108286288667 10.859626929873219 0 -1 -1
2746 1 1.9733839500573214 9.108570922806946 11.198023325505917 1 1 0
958 1 0.35483666569694705 6.84174394041246 11.698864548382662 2 0 0
224 1 1.3084477158079437 8.084368016950215 10.903748001347525 1 1 -2
3703 1 0.6652970480814824 7.002554083350919 10.652366312526006 1 -1 0
1431 1 5.411500990680257 9.759683504509638 10.251172501651988 0 0 0
799 1 2.620563765707889 7.637988164331336 10.881675625657447 2 1 0
86 1 5.332299232968451 8.717626104374432 11.671773022631982 -1 -1 -1
1648 1 7.324935407443231 8.529389310213864 10.566496884592517 1 1 0
2727 1 6.789875351294983 9.340026552542144 8.7088652884132 1 1 1
3913 1 7.197042364714978 10.059593444912727 9.490675896950226 0 0 1
2277 1 9.017184719271318 8.996994173971279 11.085426986620908 0 0 0
1929 1 9.472765928421893 7.857975352753572 10.74250334528275 0 0 -1
483 1 8.436577192564252 8.06390527883238 10.394820099286191 -1 0 0
3216 1 8.939626188320581 7.057186306450413 10.825758524092668 0 -1 0
2340 1 9.987931578205938 8.073513780336532 13.509529749983615 0 0 -1
74 1 10.968874165829126 5.868966930668221 12.278022293714598 0 0 0
2279 1 10.541819074884083 8.764851907734123 10.551377777830934 1 0 0
1820 1 12.54419570431267 8.16280531311724 10.987526417197929 -1 0 -1
449 1 12.356350798360035 7.472513696819192 12.01393507823504 -2 -1 -2
3841 1 13.099055594477637 9.120895734840072 10.21714789097066 -1 -1 -1
145 1 13.769884631844674 8.49914536455562 10.661672266279657 1 0 -1
896 1 14.301450857501077 8.418760589609398 11.673232182939127 0 1 -1
2782 1 15.304929498573973 9.428282901152434 10.140410637965061 -1 1 0
3954 1 15.211028028220824 7.432501234818025 11.117375445642544 -1 1 -1
1260 1 -0.6870562546708024 7.146976390585953 11.889754644011171 0 -2 -1
338 1 -0.6466018519961537 9.154265861871966 10.329743073469695 0 0 0
993 1 0.07230488310519512 8.770980096410153 11.815648346081293 1 1 0
3749 1 -0.20692315081517654 10.02801930515648 12.739173785592177 0 -1 0
693 1 3.8337831734174435 9.622757022501778 12.134228307632473 0 -1 0
3244 1 3.131384735939858 8.74826321731606 11.41719278961572 -1 0 -1
1556 1 4.386699609531644 9.117687683632182 10.258130458196705 -1 1 -1
2290 1 5.460721873012745 10.782202248745488 11.900469199188532 0 0 0
1612 1 5.625256078961537 11.55182008442197 11.174936884039507 -1 0 0
36 1 6.431771658767207 8.666743181561245 11.578755283733448 0 0 0
732 1 7.2005053232723135 11.153832140674185 11.93501036002435 0 0 -1
1985 1 8.023566492290593 9.504422719304976 11.094638793725416 0 1 0
913 1 8.652921045690428 10.341781742956913 11.055392787877162 0 -1 0
2642 1 9.552074928900465 8.919955867998489 10.015796874197811 0 0 0
1877 1 11.579743738202962 11.224299403474046 11.37061323530894 0 1 -1
2492 1 13.791738442727587 11.302889712784774 10.508655530041894 -1 -1 0
3301 1 11.438104614839826 8.425324133023052 10.958164323037195 0 0 0
1399 1 13.209078820787143 10.368089270561823 10.463953893727968 -1 0 -1
1223 1 13.400800395772123 9.104240678825676 11.314746098469668 1 -1 -2
3348 1 11.094529569015094 7.918872617262254 10.084191365999052 0 -1 0
851 1 14.047805678345567 6.721875941635799 12.75126329917134 -1 -1 0
2762 1 14.184371421154916 9.288357809198692 10.35159024471045 0 1 -1
1057 1 -1.1545909970954946 9.090428737713202 11.63800322318542 1 0 0
361 1 15.878469481763613 10.983751142402081 11.782928653924234 -2 0 0
905 1 -0.3289819841435374 9.854266910936271 11.665126085365166 0 -1 -1
1914 1 0.931739714773296 11.58507919619326 11.657881204188856 -1 1 -1
2940 1 1.7377971101312135 11.946969605400257 11.09198165208171 0 0 0
2132 1 0.9768905056824342 12.820574622108094 11.219244026940105 0 1 -1
1440 1 3.387831572811135 10.694805758579042 11.869297042374797 1 0 0
1830 1 0.4976975192460602 10.589222562692344 11.67971682734321 1 -1 -1
1587 1 2.2292239936162184 11.066199446372242 11.488610239397513 0 0 -1
3003 1 5.216435877754475 11.420845060227444 12.870804720815139 -1 -1 0
3689 1 2.855039102220209 11.25768017121686 10.470881560236837 -1 -1 0
3740 1 4.651101844905133 10.94556294347202 10.924466685674584 -1 0 0
3170 1 4.665634450423008 12.297674118338266 10.427118031300596 1 1 0
733 1 4.483578265970705 11.116104151615815 13.87497997644055 -1 0 0
1434 1 5.489598366792324 12.962283225179542 11.137201784583354 0 0 0
223 1 5.5710627029084385 12.222412698346037 12.163521378888746 0 0 0
1846 1 6.071898668606433 10.715767467129353 13.197974144279964 0 0 -1
3616 1 8.58726059278197 11.332762735796313 11.206535224823488 -1 -2 0
683 1 6.312701088420395 11.578728482904648 12.42504994309731 0 0 1
175 1 8.057476256805405 10.354454566484597 11.949507889808192 -1 -2 -1
577 1 9.79063134995441 11.051082296178015 11.045362117281531 -1 -1 0
1523 1 9.128141861172628 12.37518095736965 11.47386724061798 -1 1 0
4000 1 10.335436056948579 11.54566426059313 12.81165548909063 -1 0 0
1075 1 12.735685218571009 11.027947530328888 11.173107555744046 1 -1 -1
413 1 11.682487055408856 8.40675333195152 11.997816990497995 -1 -1 -2
3563 1 11.331321995729198 9.462284143363501 10.618692832019896 -1 0 1
3423 1 12.305217012554245 11.726188636613072 12.102070728108094 0 -1 1
3077 1 14.438272168285168 9.45261741062057 11.549124454579772 0 0 0
3081 1 12.329947352953898 9.84039863930927 9.527775449165908 -1 0 0
2783 1 13.985718874065977 12.918405835922977 11.808351119493103 1 1 0
1186 1 14.290266127186666 10.043724501144556 12.435871156406174 -1 0 0
3219 1 -1.2808158763360087 10.186966406648251 11.27760943062516 0 1 0
2950 1 15.273704039494184 8.504145324208354 12.154646153632752 0 0 0
3729 1 14.908130608149829 12.295003205698563 11.980597759830015 0 0 1
1178 1 15.663012719502486 10.846204092206436 10.713885843843116 0 0 0
1051 1 15.969406832833549 12.421991976627043 12.04966321790232 -1 -2 -1
1704 1 15.153372420029815 10.293872581358611 11.63174467558089 0 0 -2
3590 1 16.154175714969018 13.776673325599488 12.228689139331934 0 1 0
3725 1 15.992258154117948 13.011726668961076 11.18357262307148 -1 0 0
1619 1 -1.0873995441686168 13.993801679468131 11.207621976629154 1 0 0
3478 1 0.2520271960114111 13.56405332628913 11.238248204924236 1 1 0
236 1 2.5269406013470284 12.619629512686133 10.60751397927002 1 -1 -1
3955 1 3.646343091294006 13.061939514220725 12.841220303921311 2 0 0
2447 1 2.441651983287875 13.792348009517235 10.609967846844512 1 -1 -1
3577 1 1.4080684239493184 14.31369499581345 9.78276872545733 1 0 -1
1121 1 5.227860325150512 14.817076588952645 10.664953957803885 0 0 -1
3378 1 4.57115336040903 13.162776523637076 12.05472164204128 0 -2 0
1070 1 5.237372253362898 13.100257042385369 9.890882129576685 0 0 1
989 1 6.520493231021455 14.322296881514077 11.52782703060034 0 0 -1
1784 1 5.40540277598126 14.811850917049526 12.210008236603832 1 0 0
2477 1 7.295918638456662 10.439399238946095 12.693693369443555 0 0 0
2934 1 7.862267203766002 11.9570512955445 11.684897617561266 0 1 0
770 1 7.589112488274971 12.909693556470161 8.657992784209972 0 1 0
1171 1 9.955408993481193 13.086839153049722 10.001329745409253 -1 1 0
17 1 13.14268489255082 13.40958346053707 9.22728388733564 0 -1 0
3226 1 9.646866620819024 12.611877198612108 12.419472939954503 1 -1 1
2157 1 13.412305605588914 11.855968152119491 11.486670836721322 -1 0 0
2146 1 10.763813039864086 12.671387128266906 12.11524545290237 -1 -2 1
3878 1 12.12538014928871 12.451329907799215 11.083442400422603 1 0 -1
697 1 12.537507175356392 14.533191077202519 11.991175474530007 0 0 -1
1841 1 13.720984271793482 12.038204954597294 9.33056683269158 0 0 0
3916 1 13.679735651121362 10.253709385888458 11.452775674858968 1 0 1
2753 1 14.106316547928408 12.407092800745026 10.751274680820663 0 1 1
2147 1 14.506697055617407 11.188274143085884 11.771420851182786 -1 0 0
114 1 13.311283297424039 13.785210480905139 12.446751576337576 0 -1 0
2225 1 15.511756489857877 13.048388253984989 12.889652098210464 -1 0 0
2128 1 -0.006485079755237155 13.973941675856736 12.947153299640123 1 -2 0
2265 1 15.973566030484342 13.37129739093077 9.875554781623942 1 0 -1
2083 1 -0.20363352288595138 15.500302901316083 11.45470947383537 1 -1 -1
263 1 0.32191384109783105 14.38582374196426 10.596660603375328 0 1 -1
201 1 1.851572931914542 14.899235172223225 10.69624784271918 0 0 1
2022 1 2.27669923444343 14.347600934431489 11.534762609642316 1 -2 0
1375 1 4.133653178697906 13.674320918317795 9.681499172395272 -1 0 1
900 1 6.372093309721897 14.923759932494104 13.037175269805818 1 0 -1
881 1 6.18447855766811 16.219346413114305 10.88447006182398 0 0 0
1656 1 5.910083571890153 13.841634305714528 10.58624560197306 -1 -1 1
505 1 7.719402583634039 12.886056681056983 9.951475904128564 0 -1 0
75 1 7.355094333539087 14.504140750905403 10.435849694198943 0 -1 -1
572 1 6.764324968192652 13.622166348151072 9.801179363715306 0 -1 -1
849 1 7.853920571702195 12.853051494463479 11.084421874331298 1 0 -1
554 1 8.5274877940145 12.472513878566359 10.31473058069584 1 0 -1
1479 1 9.063392041651802 14.723890133682886 9.276486378870608 1 0 -1
2208 1 8.707847695853077 13.337987804379646 11.925310214097568 0 1 1
2317 1 9.032934730530329 13.28852581466914 10.764435659871278 1 0 -1
1113 1 9.946955055167734 15.347833560363899 11.943642124832952 0 0 1
1674 1 9.368357010430033 14.409417115001965 11.862143083062053 0 0 0
1005 1 14.431315400959816 13.327368012700024 9.80839575608884 -1 -1 -1
3665 1 11.832596157556095 13.046336446778971 12.2123418690846 1 0 0
1034 1 12.814800394757947 14.582330342381422 10.903592846955942 0 -1 0
622 1 13.579875125574443 14.010992275046473 11.458324555983758 -1 1 -1
1225 1 14.497284288642295 14.325792358705083 10.835700911038339 -2 -2 -1
1169 1 14.344118268686573 15.920293858806662 11.009018483732984 -1 0 -1
1516 1 15.185939468042193 13.89586089737268 9.03332891083977 0 0 -2
439 1 15.66459693061688 14.746512353018314 12.214612258047133 0 -1 -1
3466 1 14.927620005221904 12.913832160169825 10.911966473273372 0 0 1
2238 1 -0.7834696798576856 14.82296470065468 10.70060516869952 1 -1 0
2346 1 0.03945902825818326 15.399949512321427 10.140332827884848 1 0 0
2560 1 2.127343014317806 -0.7329109705819823 10.331807430542568 1 0 0
3390 1 2.2366366196476717 14.232682916401492 9.038915045209254 1 1 0
3340 1 1.4405451390906023 13.41266667001387 9.000875636533271 -1 -1 0
2319 1 2.30593750177354 0.31667361053345 10.173280608658766 0 1 -1
1122 1 3.382530856526359 14.604385988527715 9.241683749787752 -1 0 0
2848 1 5.099530699839488 16.08321446886918 10.560599213385176 -1 -2 0
1448 1 4.071724676956895 14.761345140491553 10.231455727159817 -1 -1 1
1855 1 5.572447089453995 15.625348593414195 11.367065361023093 -1 0 -1
2264 1 5.0330662736869805 14.084837133669202 9.808140736447218 0 0 -1
3011 1 8.138108501476477 15.514444103788314 11.626780181206433 -1 -2 1
1236 1 7.847790146129059 15.185641242276606 9.808905262687862 0 -1 0
272 1 9.339363403555188 15.423312214787884 8.644724633740507 0 -1 -1
901 1 8.743994498244147 15.836318573635285 9.545077857423118 0 0 -1
2646 1 8.681467337353212 -0.2198856158485829 10.016009434104902 0 0 0
1920 1 9.719303240902361 16.17267842640103 12.67534996921101 -1 -1 0
3514 1 11.659490574420461 15.06598423600082 10.714030892087912 0 1 -1
2223 1 11.587813124118055 15.89749707504457 9.321729763718926 -1 0 -2
1865 1 13.601882102867995 -1.248850770597042 11.745400393962624 0 1 0
1638 1 13.734249119466288 -0.19782204209628884 11.305720957688866 0 0 -1
2664 1 -0.9534127214588083 14.922392886024642 11.805675117217952 -1 0 0
3739 1 15.39660884679131 14.919848816874396 10.837592546224673 1 -1 1
1265 1 -1.0834838505882491 15.739015210184377 11.021035146976834 0 0 0
2779 1 0.9213680357525806 -1.058936277622378 12.14328619594566 1 1 1
1824 1 1.408507703238787 1.2849028233694035 12.6462068718146 1 0 0
1525 1 3.1061401991549724 0.5349988793078062 13.418230419267548 0 1 0
1045 1 3.0390684369953798 -0.1132595594600243 12.004752078148755 0 0 0
2649 1 4.148251033552092 -0.1418408210141222 11.6943297498159 0 0 -1
1854 1 4.5538246562989615 15.177908802559507 11.311972407821111 -1 0 0
781 1 6.806630054353649 -0.41661722470280393 10.492514426881222 1 0 1
1569 1 4.440303965828983 16.21432557420673 11.441639868923216 -1 0 0
2895 1 7.387221587101822 -0.1293913870421053 13.33214530141284 1 1 1
3619 1 7.547970335871597 -0.5347329804774409 12.253797592979986 0 0 1
3624 1 8.586414019402397 -0.7320103126980563 12.003816402345546 1 0 0
3570 1 9.719647544047092 -0.7939206748665191 13.618965570351902 0 0 0
1967 1 11.20525402615403 -0.6448220507504305 11.852003971628793 0 1 0
1984 1 10.340616218428414 -1.1235562847576435 11.64541350679962 -1 0 0
3078 1 11.08300259448659 0.9501184814774652 13.733319445608881 0 0 0
3073 1 10.996649441271028 1.1905067031889498 12.393968563037298 1 0 -1
2018 1 11.321109627771607 15.026353966936814 14.339885795848023 1 0 -1
229 1 12.850437135312237 -1.0351720441698973 12.748837930234913 0 1 0
3652 1 12.207326569333917 -0.27076535745642016 12.671312448057614 0 0 0
170 1 15.332757196391107 -0.6313854273079115 13.390499042548605 -1 1 -2
662 1 0.04997138619406161 -0.5490702688639556 11.70402467560875 0 0 -1
1766 1 -1.2603688315856356 -1.2313214236755168 11.844936021766287 0 0 -1
626 1 -0.4090743312246101 0.17258365735154535 10.885456074170204 0 1 0
3403 1 0.4767783713140059 0.8880385670884197 10.903950060701076 -1 0 0
841 1 1.1929744133201972 1.862480387621066 13.7321236266157 0 1 -1
1436 1 2.9165191134343926 0.5722008266082534 11.260974162754751 0 1 0
645 1 4.081508162017387 3.323674878556308 12.008615756696644 -1 0 -1
2674 1 1.9800948768518492 0.5019210380093286 11.941811273899848 1 1 -1
1551 1 4.712465237234015 0.23859544744176175 12.506245886781056 2 1 -1
1646 1 3.412998463738653 1.5081266339670982 13.379794102822615 -1 0 0
1839 1 3.0497671491567084 2.4208595047360673 13.409738241348341 1 0 0
3434 1 5.460472388536562 1.0485590454179228 11.235144342683203 0 0 1
3300 1 6.962977528862723 2.2985115799767843 12.80479743604438 -1 0 1
916 1 6.482247913402415 0.5168954461569408 11.466455252486904 0 0 -1
382 1 7.422418850731534 1.8700977516642654 11.895350041051492 0 0 0
1478 1 8.370412484654395 1.8935759976654691 11.12964807369375 -1 1 -1
1785 1 7.335443085227979 2.9424468464101423 12.156896811579802 1 0 -1
1782 1 8.896701016226368 1.4417708686038888 12.319655295752396 0 0 0
3223 1 10.64095983932643 -0.69762182181369 10.494028792412442 0 0 1
1625 1 9.925429230158331 1.1723304833080714 11.859058338992748 1 1 0
1746 1 12.510953166776469 -0.7213247767112068 11.595455479374706 -1 1 0
1461 1 13.110230507696505 -0.015634111081408886 12.257991037258174 0 0 0
2703 1 14.434482129160084 15.766644571138755 13.54034012210765 1 0 -1
524 1 -0.4624229445260385 1.3911539092542764 10.672754673441707 0 -1 0
3853 1 -0.96132632213901 0.3107482445778009 11.667038031693478 0 2 0
3599 1 -0.8246232438673551 1.7485923943437478 13.131129364887045 0 1 1
3054 1 -0.39450920313156557 1.4428730111471277 12.121062329709176 -1 0 0
434 1 0.509214309607938 1.996462323187513 11.65150092049144 1 0 -1
3195 1 2.1145211176517 2.1632721966464636 12.912026477437909 2 1 1
70 1 1.0259004931200555 3.12042853355664 13.561805016439225 1 0 0
237 1 0.8603511968903441 2.165485809149871 12.67478989669365 2 1 -2
3995 1 5.125948131732678 2.98905216120835 15.30035716405719 1 1 0
1084 1 2.3196832022527762 1.5935138579522543 11.878981604573557 -1 -1 -1
1053 1 2.6484799446900693 2.5779380502940996 12.045852459002482 -1 1 0
1460 1 4.132135042767466 2.3212899415488057 12.865284003351992 0 1 0
929 1 5.177270660151913 2.872446404232668 12.736930573950463 0 -2 -2
447 1 5.21996482156304 1.9062987885345244 14.61220856553215 1 0 0
3777 1 8.523482952990635 0.9519156782083349 10.394668143449435 0 0 0
1135 1 7.503245619416338 0.5038011656375756 12.0106889406374 0 0 0
3318 1 7.582595746318066 3.0066790970064714 13.301955023955836 1 0 -1
1651 1 9.342947236026953 2.678114308510433 13.258708930048874 0 -1 -1
42 1 11.15679553842538 2.4201124120317625 10.445719216544273 -1 0 -1
2976 1 6.671238193245478 1.4503535513179102 10.969005419558865 0 0 -1
3938 1 9.471249044818776 2.2977795459874932 11.600302324463147 0 1 1
1849 1 9.80882374178667 2.6127995332999605 14.179461257388146 -1 -1 -1
3784 1 11.424202616899509 3.4970401399145885 13.817763753218086 0 0 2
3174 1 12.09179649058613 3.0985378049035113 10.902519808210167 0 0 2
2902 1 9.3294628231914 1.7739868958823486 13.945950883431802 0 1 0
681 1 13.71992009485216 3.739784446898594 14.187439807197741 0 1 1
284 1 11.934915011922781 0.7944897180786405 13.104411751241782 0 0 -1
1305 1 12.93287543328433 0.9009850050405808 11.471736863554309 1 1 -1
2190 1 13.689889545815687 3.1666578722957173 10.51336947664058 1 0 -1
3634 1 14.83171581099866 1.4534765214883918 12.80853026518707 0 0 -1
1414 1 14.796193525894768 3.631122755689888 13.829445587775476 0 -1 1
437 1 14.23885816284753 3.3072214252784233 13.023696333423873 0 0 -1
244 1 16.093691261830404 1.0015794657365142 12.46023045336642 0 0 -1
2401 1 -1.1023721348526028 2.9875086904288715 12.503036817616755 0 -1 1
2306 1 -0.08349466922126014 2.6415142744212776 12.954347629749362 1 1 0
81 1 -0.26896981474734516 3.3933912727024955 11.012719315083908 -1 1 -1
182 1 2.588102626833781 3.9353055443741365 12.67031699469414 0 0 0
1927 1 2.2459223425901462 3.2621127792991356 13.452830718054726 0 1 -1
1845 1 4.333179596223098 3.2859049103790694 13.97546850531737 0 0 -1
3536 1 3.62550976159638 3.200750030250699 13.181373721893985 0 0 0
679 1 4.774151139632353 3.9140459134553707 12.935504800176517 0 0 -1
430 1 5.785775361479996 3.8607219891656994 13.195413288436304 0 -1 -1
3692 1 5.266285527569143 4.93445329971358 12.272005274487357 0 -1 0
187 1 5.513757750000458 5.104340040384758 13.307558361126638 0 0 0
19 1 6.208530019825764 2.7318666663999824 13.350628049789885 0 0 0
221 1 6.812895101387118 3.3622444299922263 13.975514307677425 0 0 -2
1492 1 9.766728945811968 3.779867341132994 13.954885022958267 -1 1 0
266 1 9.002482991298592 4.068831440209341 11.56121928261433 0 1 0
1044 1 8.938712442889752 3.0677223447863815 12.26897760685996 0 1 -1
2568 1 9.744065866637227 4.877904757259798 13.449415005733448 -1 0 0
387 1 11.134850951814112 3.508768083521997 11.178777725128613 -1 0 -1
2698 1 9.211903553406419 4.4956111378971615 14.607963936191682 0 1 0
946 1 9.810513538785738 3.6174868904509925 15.082346110851834 0 0 0
3831 1 11.374404123816166 4.722611389627491 14.356449192704925 -1 1 0
3309 1 12.467853808323852 4.2346578244369475 12.142705417222082 0 -1 0
923 1 12.72480193332192 3.1484697805755166 13.721156858289971 -1 0 -3
1338 1 15.111278159966623 4.236725238295731 12.892597888624486 0 -1 -2
3442 1 12.007899125783505 1.537518339484956 11.721520715227946 -2 0 0
1668 1 15.564089426315011 3.218287250061242 13.092916738552704 0 0 1
3971 1 16.229179898323093 5.246319038927322 13.293521645269072 -1 1 1
1790 1 16.09799205795459 4.1855097650343644 12.282203855419388 -1 0 -1
1811 1 -0.6127606128189255 4.981479395646509 12.33299970092427 0 0 0
3564 1 -0.22813808661423396 3.740834692445988 12.077252006288788 0 1 1
1713 1 1.2688299098857962 4.060122891403967 11.815273385445687 0 0 -1
889 1 1.3296725265841434 4.010823690701055 13.116086769258212 1 0 -1
1583 1 2.328729794882498 4.29715869864037 11.679218986036899 1 1 -1
3662 1 4.340953008469259 4.952572359750512 13.126172113318594 0 0 0
995 1 3.564886434018133 5.931327847277932 12.694606297457172 0 0 0
2744 1 4.57506699998735 5.930228738798587 10.84304567311029 1 1 1
2743 1 2.3314656389018165 5.208706553142495 11.116493329699551 0 2 0
1856 1 4.407268027260915 4.829621732454366 11.519168968801907 0 -1 -1
950 1 7.073229541417621 5.557275587862062 12.288552545978618 1 0 0
3062 1 4.293018822523827 6.3944620971883595 13.551577909090106 1 1 0
1412 1 4.546892731219525 5.599113818658792 12.373572257763325 -1 -1 0
2138 1 4.9558004063238155 6.58214483758562 14.517810076466366 0 0 0
2254 1 8.15935249985647 5.73196735762693 12.192105166029583 0 1 1
1903 1 7.031027045829038 5.499960624499516 9.952255478228336 0 1 1
2872 1 5.999538400744227 5.6968496031351705 12.340984489292719 1 0 -1
3660 1 8.81917503882242 5.647058837897601 13.073677078133278 0 0 0
3816 1 7.839277232703914 4.7632450548987535 11.829720611365982 0 0 1
2724 1 9.68687975442033 7.26589277548984 11.65633479703358 0 -1 0
359 1 9.234492280484556 6.23421163231241 11.884021289811765 0 0 0
392 1 10.324771330751807 5.24140189363401 10.014296457220363 0 0 -1
1509 1 12.13174916210839 4.400146103580261 15.2246274712693 1 1 -2
12 1 12.216837742478004 5.4398267773344795 14.289416021273295 -1 -1 -1
210 1 10.216531841575277 4.6398234174670065 12.337227582957407 0 0 0
1202 1 14.055310428161134 5.128938806462428 14.506715933835183 0 0 -1
661 1 13.000069332662314 3.288627951008981 11.463133994792896 0 0 0
3184 1 12.87750591237635 5.863488984621448 13.625500052728187 0 1 0
3647 1 12.829787135482423 4.433338336562952 14.214928198901992 -2 0 1
2430 1 14.618429056408544 5.928749928282125 12.609185787755969 -1 0 -1
2099 1 14.466058937007798 6.617695562615616 14.437995838296672 -1 0 -1
602 1 15.173526257454537 5.250048321201855 13.240104160788544 -1 1 -2
100 1 16.03686940719831 4.205148764016784 13.494132924081484 0 0 -2
3511 1 14.281481537348915 4.755950015965057 12.489908959028643 0 0 0
367 1 -0.7252329237743498 7.978066902271024 14.384823244036216 0 1 -1
2621 1 16.229900328939404 6.694347938164525 13.082247503307542 -1 0 -1
3761 1 0.6471129644608407 7.209215944622926 12.724623241357387 -1 -1 0
859 1 2.569151295866568 6.695020429402565 11.592472606533502 0 0 -1
225 1 1.2674326265980285 7.462215461838854 11.758674645403376 0 1 0
1207 1 3.3298960140980007 6.917277951202221 13.160774536032662 0 0 0
7 1 4.767960653479822 7.897718640116288 12.054157351605255 1 -1 -1
214 1 4.463074954709867 6.881774547011869 12.500499484648588 0 0 -1
2419 1 5.8897828242708 6.8404218174290055 12.730553034705784 1 -1 -1
2810 1 6.960866297536789 7.789561383879644 11.662502707930056 0 0 -1
2954 1 5.558999622962915 6.964093885802333 11.718320248612214 1 0 0
2396 1 5.168422679006378 6.053982506397359 13.013977372300845 1 0 -1
2691 1 7.387565839167243 5.445601971249233 11.30121742655083 1 0 0
773 1 5.518064304299322 7.305791715019977 10.79389479057716 0 -1 -1
1508 1 7.530377817731605 6.58635868346356 11.946032529165459 0 0 0
414 1 10.391728664174186 4.88354546233935 15.638279240254644 1 0 0
1301 1 9.977902103743693 5.671110636105807 12.750029065167396 0 0 -1
1152 1 9.839435421552315 5.516602124273872 14.146975140716354 1 1 0
2405 1 11.849292258113383 5.530796430770611 12.808691586377332 -1 -1 -1
1983 1 10.181170821819356 6.692696291764198 13.824783292128155 -1 1 0
2522 1 13.05027342607863 6.814402744564944 12.895295986811302 -1 0 0
2528 1 10.70541752051638 7.2618252542427335 12.355095023052987 -1 0 0
1482 1 13.375855519079009 7.114800249244597 13.979254756901637 -1 0 -1
1093 1 15.034072193269797 6.285833031913938 13.679458281208886 -1 -1 -1
2827 1 15.79643457226923 7.46112735466313 13.805120764465599 0 -1 1
2868 1 0.5071217448138363 9.051991318955917 13.114081598992282 1 1 1
3028 1 15.897475770792376 8.459737362838563 14.511742327552444 0 0 1
3797 1 -1.0950486752026032 8.548148040482166 13.46760219483005 0 0 -1
3704 1 -0.2897523915486775 7.121290159277613 13.434314546111766 -1 0 0
1208 1 1.0417899823141616 8.185571977957622 12.746971532717216 1 -1 -1
2167 1 3.462303032593052 7.2764548495280685 11.929661138800745 -1 -1 -1
3421 1 5.251047506405493 8.890137750496706 12.640113286265153 0 1 0
3538 1 1.7650944581341914 7.399189625696875 12.747932720171086 0 1 0
1188 1 2.961750270154522 7.992028219093715 12.79078184932596 0 0 -1
1843 1 5.898819266568014 8.198257963848429 13.453425495250888 -1 0 -1
2007 1 4.793315890245908 9.798956515189618 12.479249675292557 0 1 -1
2480 1 4.2764324816566 8.934771237106288 11.368133086324798 1 0 0
1393 1 5.994454452489129 7.410575769833308 14.145314258426444 0 1 -1
1660 1 6.43855462634587 10.498375582343332 11.85528740127126 1 -1 -1
628 1 8.441772827849727 8.984621524874205 11.993056852908094 1 0 -1
1476 1 7.6697663960156195 7.865453294628958 13.445380190532568 0 0 -1
3146 1 7.97183261459042 8.178257110476391 11.359581441979556 0 1 0
1815 1 8.465168172624129 6.728362762697259 12.729999859265233 0 -1 -1
2456 1 8.725029767749028 7.55627124040579 13.304174323897332 0 0 -1
953 1 9.627695140773936 7.140204428116517 12.90471954062069 -1 1 -1
3007 1 8.029493673039275 6.959929453738489 13.954775818475353 -1 -1 0
1545 1 11.561896513055157 8.129419616974326 13.06981381910772 1 0 -1
2031 1 10.499046041907821 8.425082555815676 12.564517937983842 0 0 0
3765 1 10.946262820206213 7.451218528978487 13.533463827268761 -1 0 1
3370 1 10.617105422329761 9.583322925010364 12.694776677478599 -1 -1 1
288 1 12.211799150109494 7.342967757624772 13.150570399679943 -1 0 -1
1408 1 13.245540019274442 9.186415098605014 13.656306432668883 -1 0 -1
2709 1 13.134349815344649 7.17231652715442 10.773416679874693 0 1 -1
14 1 12.46846536129542 9.839713958981 13.559924570440518 0 0 -1
189 1 14.014416385331588 8.86685250761106 12.898741096742175 0 0 -2
1512 1 14.406666893159622 7.5064053787747 13.470366061445354 0 -1 -2
3063 1 13.545211744830041 7.632445274246184 11.677802372916325 0 0 -1
3101 1 15.72804547014588 6.773005900130547 11.867284843276572 0 1 0
50 1 15.045466186228232 7.972249162691092 14.373997487188982 -1 -1 -1
2240 1 0.5448163404619584 10.05357385925531 13.605583081504216 0 1 -1
2527 1 0.40551257260472395 11.059806340155628 12.661524105983904 0 -1 -1
159 1 -0.1797574331165417 8.948957617654322 14.02364458763183 1 -1 0
3962 1 1.1752917896399024 9.05805767640226 11.922126611081497 0 0 0
2875 1 2.6401226879739634 9.285466799175246 14.035908343773842 1 0 -1
3908 1 3.8711669375615925 8.954379619835688 14.081743590428646 0 -1 -1
2925 1 2.735341093138028 8.996321675996356 12.497933214899112 0 -2 -1
347 1 4.5141564064423445 10.409239584783363 11.77353029945329 -1 -1 -1
3917 1 5.220108824695485 10.245349659273758 13.279134181506603 0 -1 0
3950 1 6.014283425392589 10.497901159119586 10.81029329587463 -1 0 0
3446 1 7.324064743457386 9.724207038411235 11.937269943734913 -1 2 0
1360 1 8.394825525433081 8.777172773965255 13.46667118076135 -1 0 0
700 1 9.928536189827328 9.793283377719643 13.520382744702216 -1 -1 -1
2583 1 8.094723285805948 9.7568412974638 12.772083044858674 -1 0 -1
2004 1 9.473101965691924 8.928558515333712 13.698096311740985 0 0 0
146 1 9.69336005148168 9.900610043864855 10.727009532397787 1 0 0
3311 1 12.456315060233798 9.856019460532595 11.115068789265498 0 -1 0
1248 1 11.994386543144925 9.929040923321374 12.693409731744671 0 -1 0
2516 1 9.230415680062556 9.030083374677089 12.580389090292968 0 -1 0
3181 1 12.737998307376229 8.528846422604593 12.191391880147703 0 0 -1
1789 1 14.507635223483316 9.551269675944395 13.71501197689307 -1 -1 -1
356 1 14.887731822061372 8.55722881708874 13.503122742391394 -1 -1 0
2558 1 15.153683494728224 9.41852779410996 12.499574460145373 -1 0 0
1679 1 -1.168186033125484 9.908874752411108 12.308533426112147 1 0 1
948 1 -1.0239503408149628 10.965642520123925 12.730422037361455 1 0 -2
69 1 -0.5542399942003728 12.93408822311345 11.588502207857886 2 1 0
407 1 0.8093930747527951 9.82089674209079 12.527492186941682 1 0 0
3523 1 1.7046994678106855 10.136765391515505 11.921708711224644 0 1 0
2509 1 3.945110458760488 10.197483819686573 13.118007363213616 0 -1 0
2414 1 2.7959444570032037 10.077482233457774 12.583018041846724 0 -1 1
2115 1 4.211561558932537 9.905644428577958 14.071887829449594 0 -1 0
3987 1 3.9282211267090057 9.929339803812566 11.165334024628798 0 1 1
1964 1 5.926301355755355 11.86918789190452 13.737308660403468 -1 0 -1
1309 1 4.316309184391487 11.220096383015015 12.445888927373279 0 -1 0
1558 1 4.980000779555046 12.783902201648052 14.212837742216555 0 0 -1
3419 1 6.993004338499617 9.73724930187633 10.69775531368015 0 0 0
2635 1 9.337511522650091 11.19674647376451 12.155309837466879 -1 0 0
1706 1 7.79928070613102 11.44606930516623 12.861388277529278 0 0 1
2587 1 8.474021700764638 10.717300529055123 13.022058354992032 0 -1 0
3128 1 8.985242283797172 9.908577033611826 11.988071269963287 -1 0 -1
2137 1 10.075602580994254 10.239673006233826 11.86260848149211 -1 0 0
3854 1 10.687634375258785 10.502992544888718 11.041355330494529 0 0 -1
1107 1 11.270066067437071 11.454877170063044 12.295790015498259 0 0 -1
674 1 11.137295919795454 10.966144499812271 14.373043144286077 0 1 -1
3573 1 13.241269099240636 10.956732788467765 12.231716513910163 0 1 0
3113 1 14.763730237482395 10.074904668381306 14.939203771417965 0 -2 -1
1883 1 14.166906111549602 12.95571013741804 12.863885548272652 -1 0 0
1203 1 15.656575335876319 10.110150421935264 14.060456547035518 0 1 -1
3148 1 15.476366844982763 10.404394738486717 12.629245314930376 -1 0 0
1193 1 15.829722473016663 9.318706123387214 13.53280150081865 0 0 -1
3447 1 15.743215929897772 11.84363771729533 13.074106426678304 -1 -1 0
1869 1 0.501539344476843 12.180133060318807 12.38310043581071 1 -1 0
641 1 -0.002113462756869744 12.802676231988164 12.983331287557487 0 -1 -1
2005 1 3.4932529344927437 13.153603639432015 11.571772926844867 0 -1 0
1928 1 2.4127379019632835 12.918542739352379 11.60533490982106 1 0 0
3331 1 4.8027877632274185 12.196673812694565 11.453559261539056 0 0 -1
2721 1 2.4723320298659344 14.594212002690123 13.679427395731564 -1 -1 0
472 1 2.542234837485131 12.372612913225556 12.83542520211276 0 -1 -1
243 1 2.715277104469335 11.501284649560015 12.258698767737261 -1 1 0
1270 1 3.9027683412464302 11.633050420983292 11.582581114391457 0 0 0
342 1 3.08239930998748 13.462256763464325 14.196873728572216 0 0 -2
3969 1 4.54652162247256 14.907437782209385 12.756578093487041 0 0 2
1079 1 5.180699529407213 11.635932416626268 14.966230012428444 1 0 0
1747 1 5.409399890882924 12.718603308050337 13.157087473036013 0 0 0
1038 1 7.512691763615525 13.62856606774788 12.121996511355839 0 -1 -1
536 1 6.912277703164138 11.780326338641798 13.249619073471644 0 -1 -1
132 1 10.227422142776227 12.519947455842644 13.261879312207121 1 -3 -1
62 1 9.409134962591452 13.06286195928622 13.457885928311656 0 0 -2
2831 1 9.963046283243376 13.766250465480542 12.50650714355723 1 -1 0
2930 1 11.08179755749113 13.897330857630452 12.040303623865563 -1 -1 0
2253 1 12.99532512019016 14.703510608503748 12.963552820017092 0 1 1
569 1 11.319059302132603 12.488903984693975 13.324476609450581 0 -2 0
1281 1 13.920097584947667 13.16014317274974 14.080893253019054 -1 0 -1
837 1 15.163230144856403 13.718432152984553 11.502072024791184 0 -1 0
540 1 14.304954472104518 13.847489678565202 12.456541926115174 -1 0 -1
3386 1 1.0473737034513095 13.598267324856153 11.989220203368397 0 0 0
875 1 0.6975834869442654 15.495397262750465 10.984114352769861 1 0 -1
448 1 0.011352774573328839 14.351677188017172 11.84969891192433 0 0 0
190 1 2.69386100710917 14.643555827404237 12.538598878183956 0 0 -1
2369 1 1.3455863042102822 13.786729841859364 10.845257149741657 0 2 0
1898 1 2.8868431521241735 14.637462161916181 10.32166729273181 0 -1 -1
1546 1 2.4464567118954545 13.61384664131129 13.287744781127856 0 -1 1
3649 1 3.5085124277051385 13.89873180710324 10.607087070575115 0 0 -1
457 1 4.337806049251428 14.004049465398948 11.518335652121753 0 0 0
2445 1 6.658714233354169 15.117618245551483 12.129823367746933 -1 0 -1
277 1 4.6851590454729015 16.083735377508116 13.50104853616727 0 -1 -2
1349 1 3.6858220553436754 14.807840669877365 14.192566590927134 0 -1 0
694 1 7.1739926563636285 15.968126962810455 12.112657249503169 0 -1 -2
2893 1 6.090248444750307 12.853121270906444 14.23442916265217 1 -1 -1
3675 1 8.783821009090511 14.95706868766052 12.502440537412324 1 -1 1
1181 1 7.570444814281803 15.0128539178855 12.739875835841328 -1 1 -1
3734 1 8.34489076566531 14.037912093319362 12.666270927248567 0 0 1
1939 1 7.856544114851651 14.46079120867085 11.362412737035557 -1 0 1
1221 1 12.06299830134034 15.610405740894116 12.466028017183087 -1 -2 -1
1582 1 11.994612702528132 13.901679083665304 11.134993676224097 -1 1 -2
2488 1 13.390501095924717 15.587899569325085 13.525776707935714 -1 -1 -1
167 1 14.671362006252071 14.895097367716033 11.689625306931788 -1 -2 -1
2272 1 13.956372791738417 14.264311431995685 13.439907655166085 0 0 0
2911 1 13.472714726804073 14.972128234763133 11.998658715274193 0 -1 0
3391 1 14.726027319461615 13.710881617149063 13.484383174782023 -1 -1 -2
981 1 0.41570566669813824 -1.1572855019574875 9.48330572562521 -1 1 -2
2215 1 -1.0258803861392025 -0.6553265527662613 11.0074394584664 0 -1 0
2975 1 0.6541575375977922 15.396467298171263 12.27696020789866 1 -1 0
2036 1 1.7698930556437933 15.686379811188889 11.494284736055633 1 -1 0
1888 1 1.6557150021498979 14.363957732281945 12.8642474110244 0 -1 0
685 1 1.9341351791771006 -0.582222847402326 11.697523244052926 -1 0 -1
3833 1 3.6044448233920354 -0.2159142691949303 10.805180327525324 2 1 2
2840 1 2.836754372469545 15.328110218420125 11.53225797527409 1 -1 0
3263 1 3.731201071690461 14.774946306753403 12.325383143593331 0 -1 0
446 1 3.4854421952767822 -1.247653002708824 11.828254309007663 0 -1 -1
625 1 7.23464288841077 15.97048012278875 10.273614921055634 0 -1 -1
3562 1 6.197722072707078 16.139310598730816 12.281662622468298 0 1 0
2665 1 5.594452235859133 15.505833755735384 13.357111280861897 1 0 0
3727 1 6.471694032491159 -0.587962107179382 11.599480039686627 0 1 -1
688 1 5.8863768421626785 14.961032795121621 14.41395159508103 -1 0 0
1528 1 9.487730443806718 -0.3745903543237513 12.577852465376976 0 0 0
1172 1 8.487969216930846 15.363451134021435 10.643000345645786 0 0 0
1788 1 9.352915219367228 -0.24454821566514418 11.168183465683597 1 0 0
1710 1 9.100399734396948 16.02485728059698 11.637311523144907 1 -1 -1
657 1 11.65871157497867 16.14554723366846 11.059766983381225 0 0 -2
3883 1 10.69990542296835 15.593858094321469 12.830784746590998 -1 0 0
3261 1 11.623859209859104 15.854960642025414 13.519931111140416 0 -1 0
1119 1 12.877262653094553 12.83848709915077 10.409766284190319 1 0 -1
3213 1 15.194197936326585 15.076026634197966 13.720909843790386 0 -1 -1
3176 1 14.55449396372668 14.86857655236074 12.704932949901146 1 0 0
1723 1 15.764386182601712 16.082458933810493 14.019441315559678 -1 1 0
1110 1 12.289391803692224 15.529474061585415 14.338140522396866 -1 0 -2
3435 1 -0.6056887574719543 16.08745612327512 13.846747263002614 0 0 0
321 1 -0.2580508673849038 -1.1970761040329545 12.45989383575337 0 1 0
3094 1 2.3431797827635017 -0.17153368581658635 12.817996857885662 1 1 -1
2816 1 1.943786160357456 15.376009670303297 13.206610721563536 0 -1 0
43 1 2.8220773154654655 15.63409737984777 12.680424077622455 0 0 -2
1673 1 1.0995819587350781 0.5999974505576695 15.26506425324504 2 0 0
1341 1 3.1834418769843023 -0.7352053740841806 12.983944706404959 1 0 -2
2629 1 1.5520075005741476 0.6658518580290982 13.638951819283069 0 1 0
2657 1 5.482928499669418 -0.7430851177592205 13.082933998624993 -1 1 -1
1956 1 4.156020468075528 0.2429919226484063 13.633614009421983 1 2 -2
3844 1 6.106034915991977 0.3011756797825431 15.076781068364436 -1 1 1
2920 1 4.106872507603553 0.18540977250483492 14.986336471342092 0 -1 0
1699 1 6.5585327542347756 -0.18302344907928902 14.022359675634371 0 0 0
3258 1 5.570200183071966 0.21992587686175402 11.959387794068586 -1 0 -1
1946 1 7.318863192581391 -1.1277720555583275 14.10512062547558 1 2 0
2108 1 6.296532518883269 -0.19642650155511188 12.5075263927165 0 0 0
1742 1 8.996928513950774 -0.12193839925630301 14.048384468826953 -1 1 -1
584 1 10.634752789705713 0.05446183841171437 13.946531355165115 0 0 -1
3837 1 9.920838760788788 1.1821705141942225 12.836143207757244 -1 0 0
1054 1 10.69296952954398 -1.0264956931053137 13.469132017458286 -2 2 -1
2625 1 12.402983349357681 -0.3978657762399037 15.819713936694452 0 1 0
1844 1 10.835748629406845 14.565604003841186 13.56085981164218 0 -1 -2
3295 1 11.25570432338627 15.23677208421569 15.357570051305512 0 0 -1
2468 1 8.836866354899747 15.671463900263372 13.23123910635947 1 0 1
2585 1 13.982702812524513 0.005271110016736413 12.993947855443254 0 1 0
165 1 15.154716668018636 15.638871343118883 15.335063374543282 0 -2 -1
3705 1 12.598186024000283 14.516867664896415 14.364373455023713 -1 -2 1
2946 1 -1.2381717976054971 1.0172473830121525 14.887865808468224 1 1 -1
3040 1 -0.3303387781321697 0.04102479839723472 12.90577424059335 0 1 0
2726 1 15.460153984367107 0.33914217289907733 14.227435515838085 0 1 1
928 1 14.417914072387951 15.219511276895396 14.375056771245799 -1 -1 0
2479 1 -1.1467284896780132 16.2388723830508 12.940475907634088 1 -1 -1
290 1 0.7911888003698007 0.2978898682827278 12.950121016028364 1 0 -1
1327 1 -0.043902647765298175 -0.3320430019879882 13.842152109446554 0 1 0
2311 1 0.41072733385504545 1.286861282540364 13.284214271865771 1 1 -1
737 1 0.9636212017979866 0.18413229155964128 14.156473785739722 0 0 1
2476 1 0.04701387683288116 0.8920896806317749 15.642610447410199 2 0 0
2360 1 2.0998646455225853 1.3390592286053242 14.91786598415845 1 2 -1
1963 1 1.6820974862961573 1.4322925407415261 16.030484371076007 0 1 0
3558 1 2.4621321089618484 1.2146437503781407 13.978066139385877 0 0 -1
1379 1 4.33241902842486 1.2192095366474436 14.161299668689871 1 1 -2
136 1 5.88097631520659 1.3157374112173308 15.813168635358782 0 0 0
1199 1 4.584966556504529 1.145185525322871 11.896412361057967 1 1 -1
3542 1 6.778889852951547 1.0916966691533863 15.202322963905296 0 1 0
1943 1 7.897526619285053 0.6760804388013082 13.604719949891326 1 0 0
2156 1 6.898363210598703 0.9630013721650936 12.827350751086245 1 0 0
2648 1 8.392197163770197 1.3467951751784115 14.37031171064074 -1 1 -1
462 1 8.939208077762272 0.7869268386781152 13.274366840461642 0 0 0
2251 1 8.284987354688274 2.2378051143584523 12.516622248310824 -1 0 0
3839 1 10.017237802898192 0.9551474967268869 13.850817388699323 0 -1 0
1936 1 11.14903374044583 2.9466885652413293 12.48835129984578 0 2 -1
2846 1 10.3913407740842 2.7580898350266487 15.38468792951062 -1 0 0
599 1 13.796229661548578 -1.0280693058695665 13.137165418224578 0 1 -1
1068 1 10.747143089868391 -0.11615508208284941 12.92926521105234 0 0 0
3949 1 13.434324644342771 1.7950440492794906 13.832617100260904 0 2 0
2164 1 14.98748998677248 -0.20655171295352504 15.040466748630532 -1 0 -2
3123 1 13.92251433032859 1.548200376926161 11.97626195442112 0 0 0
2978 1 15.082942447088563 0.18701197521544466 12.77648687789298 -1 1 1
3070 1 13.812603712522208 1.318366985228733 14.750577883113625 0 2 0
2892 1 14.985808377308466 1.6015179032875322 14.514039224238998 -1 1 1
1109 1 14.403160340739227 0.7880609508794825 13.822563300923619 1 0 1
1322 1 -0.6032159177914151 0.6070873993266976 13.88784578626361 1 0 -1
1992 1 -0.6695645950531116 3.116670241944532 14.80129560295154 1 0 0
618 1 -0.9262568886723284 3.012738644149932 13.611888334999827 0 0 0
1304 1 0.10056482072082207 2.1968042153108205 14.045152099182369 1 0 -1
3752 1 1.6650265338488044 3.0137931456803866 12.509757484913896 0 0 0
1951 1 1.5092207073076738 2.534178983752083 15.623358488310611 0 0 0
3353 1 2.3157120094195816 2.3205349322101654 14.157680279921074 -1 0 -1
2388 1 3.8921801452148097 2.2345871069363263 14.373695720490002 0 1 0
396 1 8.393542239365946 2.747368297531944 13.940977213181789 2 1 0
669 1 5.038769408983334 1.7814598334216125 15.620057308403737 0 0 -1
3591 1 6.405271113482854 1.9401170412108533 14.427020342798894 0 1 1
3982 1 8.34058747703418 3.984961385964387 12.484610029384687 2 0 0
939 1 7.452346782873027 2.0421495157353857 13.719922299357691 0 -1 -1
419 1 5.595445415202064 1.7451105033508667 13.350859996326996 1 -1 0
3194 1 8.250369276359383 3.0056214972168043 15.024290372333244 1 1 0
218 1 7.812481982924888 3.9660047587552842 13.683516602644334 1 0 -1
184 1 9.593997408704004 2.740491132619624 15.915997083530648 -1 0 1
2871 1 9.80273511737213 1.591890791470914 14.934013149791113 2 -1 -1
110 1 10.777222677628716 1.7021039786776568 14.418882268540168 0 1 -2
82 1 11.496116764523592 0.16994542145901792 15.086697209128992 0 -1 -1
2304 1 10.681845631338437 3.3329775515531184 14.491395438078738 0 0 -1
2694 1 13.275259968782454 2.124806618466516 11.457280035992541 0 0 0
2526 1 12.296475767338626 2.0675896590444105 13.684547315311125 0 -1 0
3786 1 13.678056350988767 2.277153504726236 12.860505862437837 -1 0 1
3732 1 14.81327124391182 2.446987671185846 13.241535504361119 -2 0 -1
3540 1 14.07629430643037 2.692126951904674 13.948852428657336 0 1 0
1879 1 -1.2826170070307759 -0.20407529584797723 13.1396168480991 1 -1 0
2924 1 15.061665456493852 2.458046573869813 15.87013095223454 0 0 0
1697 1 15.509811194334688 3.040546865035896 11.644107839633044 0 -1 0
515 1 1.163463169037903 4.103916043704327 14.204240511930706 1 0 -1
21 1 0.9086087241552905 3.4660318349303854 15.491245042931368 1 0 -2
3681 1 1.4844305412231988 5.091632266709608 12.148610850506843 0 0 1
1332 1 1.0409438640724589 5.407227816803142 13.411638858373015 -1 -1 0
381 1 1.242422433216078 4.477104237067776 15.32439589298452 1 0 -2
2129 1 2.85249836444991 5.081827447622084 12.127105441928933 0 0 0
3881 1 5.304118022714389 3.0448473759011696 14.154312257320314 -1 0 1
2345 1 3.41254797756826 4.134921235562746 14.117344848704693 -1 -1 -1
3100 1 4.6539321782319965 4.39319221304357 14.144715662887757 -1 0 0
1542 1 6.24232018862917 3.089348252837005 14.948913725745829 2 1 0
2813 1 7.0681588037672345 3.7269409895914354 15.081906365765683 -1 -1 0
265 1 10.47720381075204 2.9538890645099567 13.349667050897605 0 1 -1
318 1 9.008850474381887 3.3475530379402025 14.417666875480933 0 -1 -1
3957 1 9.074673102686583 3.938331393154452 15.77350155840021 0 1 0
617 1 14.450371923600862 4.1958352042376905 14.86742974805356 0 0 0
2517 1 13.39441641199423 4.383286107924888 15.083976907601432 0 0 0
25 1 13.092216000244864 3.168760652937623 12.467879821895362 -1 -1 -1
40 1 13.911865874410784 5.265420455926718 15.528136433490168 -1 -1 -1
363 1 15.73028991002695 4.448383460050104 15.189324837942326 -1 1 -2
1823 1 13.901937649450923 6.244358678206485 13.650549681072938 0 1 -1
3308 1 15.847781307245054 2.0928294338573172 13.669543092495303 -1 -1 1
1197 1 -0.12542231121811742 6.424744200680572 12.704383114408726 1 1 -1
3140 1 -0.08892802719233517 5.502500709020819 13.176395171526988 0 -1 0
1266 1 0.13229771270234214 3.7287266774172334 13.145330288640986 1 1 -1
3037 1 2.4368571959364442 6.075213322147825 12.636270276489336 1 -1 0
20 1 3.951560326169864 6.32789534292686 14.689446690242693 0 0 -1
699 1 3.143299049916549 4.854073244670711 13.29221192820671 -1 0 -1
3930 1 3.9246222351366438 5.283728551268616 14.16163029352928 0 -1 0
866 1 6.73987653332204 3.53849485626987 12.796580991438532 -1 -1 -1
2917 1 4.628688042747637 5.126121874942195 15.74489601850592 0 1 -1
37 1 7.598082360798543 5.066755540582233 13.902475421010982 0 0 -1
2123 1 6.172540656309377 6.501282519528096 16.009781306747712 0 -1 -1
416 1 7.3773973283449354 4.60416964397331 12.794570366502917 -1 0 -1
1280 1 7.6908686247898075 6.000325516005742 13.162188931818237 0 -1 0
410 1 9.106374684549664 4.842422194510028 12.463973157176339 -1 -1 -1
586 1 8.883779929670798 6.968165515181395 15.837666480941582 0 0 -1
2851 1 9.811268592856674 3.5752040614938396 12.837186675957325 -1 -1 0
1630 1 8.426682659852462 4.811638969342429 15.860408506924514 0 -1 0
1534 1 9.857825039733237 5.2099593580209955 -0.9339204074703399 0 1 1
282 1 9.870485399054326 6.243131034738509 15.714092966741969 -1 -1 -1
281 1 11.95966547273671 5.533675113494883 15.378063716700606 0 0 -1
895 1 11.956044236632133 6.330490940409418 13.76428702386002 0 -1 -1
3787 1 13.16415782271009 3.9210310596603932 13.170851175605438 -1 -1 2
867 1 13.795122096113541 4.875887590170841 -0.6037502494293504 0 -1 0
1925 1 -0.0744120448560639 4.6673654077019044 13.794631021844003 0 1 0
1397 1 16.112000531742865 5.738562289421502 -0.8586563634033673 -1 0 0
3212 1 0.5222819098471649 6.236175985248892 13.884208039595991 1 -1 -1
1474 1 1.7616305786565665 5.608031514052854 14.601970168423755 1 1 0
3058 1 1.2233789986689239 7.551863318814005 13.984671591847649 0 0 0
678 1 2.3522516239912212 7.572686027199497 14.666470161949501 1 1 -1
1082 1 3.9624006279559207 7.868465920118192 13.006200429285611 -1 -1 1
3256 1 4.113456410441449 8.9065198189943 12.922340576810448 1 -2 0
2778 1 4.54779887889969 7.306876680960617 15.427116368827814 0 1 0
358 1 3.2520183318800484 7.875404821458925 13.832635931848921 0 0 -1
1765 1 5.195286912321142 6.993935784226698 13.603615591703724 0 0 0
2845 1 4.381139766600675 7.414984190607129 14.329409310628485 0 -1 1
1613 1 6.37961360859058 5.454737673281231 14.483289574358059 -1 0 0
726 1 6.417523079956152 5.367042551478094 13.193848939734726 -1 1 0
3611 1 7.087141450892927 6.8184543732755 12.912113211181191 -1 -1 0
2987 1 5.67231329807104 8.127817235925098 14.97931324155591 1 0 0
1561 1 7.663620551402797 5.542146535786346 14.995000357731382 -1 1 1
1235 1 9.183164089909997 8.074964251416144 12.104785653021958 0 -2 -2
1307 1 10.313758923990392 4.556912891691046 14.630969799837155 0 -1 0
1466 1 8.923704128450273 4.29193676033814 13.302070104855343 1 0 -1
3105 1 10.452966276899186 7.219095542345981 14.785018107881104 1 0 -1
2542 1 11.19290118635394 5.719227711457881 14.416393219622801 0 0 0
3495 1 11.049799365106717 6.38699822837311 13.3639773935649 -1 0 1
1372 1 12.481697301834426 7.148357530754701 14.578815373323643 -1 0 0
2806 1 10.76718859947965 5.307604728304491 13.563545314713954 0 -1 -1
571 1 12.553940946009643 7.960757072418248 14.008721735429388 0 0 0
3903 1 14.000107243697135 7.7596450474563525 14.593338979941697 0 1 1
2074 1 13.799842973907198 6.85907164364596 15.487692203017872 1 0 -1
1012 1 14.761970119826902 7.25748988807924 15.16541464611096 -1 0 -1
1196 1 -1.203835926498175 6.382467709740811 14.620365217572882 0 0 -2
922 1 -1.2854326087992298 5.061537535938472 14.371045396126469 -1 -1 -1
1828 1 15.254738308321791 4.691336767867261 14.151997387678952 0 0 -1
3274 1 0.36137045451513927 8.070707554926043 13.642371575639288 1 -1 1
2472 1 0.1644139228408592 8.434997611475897 15.149822374458772 2 0 -1
1344 1 1.927723737163447 8.434331389556418 13.385257849436071 1 0 0
601 1 1.8221946507009283 6.349701987883378 13.828273126929421 0 -2 -1
3508 1 0.8232417194689976 8.83255543303825 14.425327667029752 0 -1 0
303 1 2.3484394991592374 7.3377997828262504 13.72051204287782 0 0 0
3769 1 3.629639990982005 9.364095297597967 15.521158967732415 0 0 0
2947 1 4.9953439507732655 7.835140363574482 13.140957774279796 -1 0 -1
1532 1 5.2694767541443595 9.310371658764646 14.728872777146115 0 1 -2
3541 1 6.506668879047566 7.589085285520239 15.391166265844408 -1 0 1
1813 1 6.3311104905269575 8.871869701720057 12.664075496805527 0 -1 0
3904 1 7.3394181834199586 8.634166859450131 12.200534080631055 0 1 0
3134 1 9.033540933440218 6.283521596413912 13.824427279870532 1 0 0
3967 1 6.9697300577365215 8.56024287312541 13.46774284033757 -1 1 0
871 1 7.354453440132042 6.054332479110093 14.226735858732706 0 -2 0
2855 1 9.37486682426639 7.281759229535982 14.023234038566198 0 0 0
2653 1 9.607986171286068 8.18359415430763 14.686516699092124 1 0 -2
3002 1 11.436845368468274 7.131636690704971 14.342708397473956 0 0 -1
3228 1 13.635349460731339 9.846757725350999 14.457846584998693 1 0 -1
208 1 13.958773428934833 8.644706817855432 14.158682703076229 -1 0 -2
2159 1 13.40725974019459 7.796422372715398 13.010348703053834 0 0 -1
717 1 15.039979236990472 8.393296631025397 15.309027888786758 0 0 -1
2047 1 15.053213730550393 9.217945037825347 14.457572941129001 -2 0 0
2601 1 15.832503373310313 7.3163654786924734 14.852001729831969 -1 0 0
3924 1 1.9476583876796503 9.492785631459016 12.915662864997993 0 0 -1
2738 1 -0.27130306731482934 10.240832800588167 14.385415153650317 1 -1 -1
3141 1 3.2423931696035586 10.012581256556082 14.40757927562429 1 0 -1
3838 1 3.2650603530293347 9.440422340772155 13.291636883687474 1 -1 0
3630 1 2.593002789928485 10.324893896378278 13.712016727268463 1 -1 1
185 1 3.4643400034839136 11.085571918742755 14.058979680758222 1 -1 -1
1919 1 5.063761974313153 9.174260873174994 13.729764117347546 0 0 -1
1247 1 3.622179327611452 11.823032664417338 13.280918860698222 1 1 -1
547 1 6.2883613426634986 9.212466210988088 14.223650430802518 0 -1 -1
2024 1 5.2388268314895035 10.641448535140801 14.871321512751507 0 -2 0
1663 1 7.635766581106118 11.443658393445611 14.048004963461851 0 -1 0
1957 1 5.79761171654257 7.8548856588601375 12.11719029943951 0 2 -2
3900 1 6.635276877885722 8.209379345138277 14.464639237291449 0 0 0
1804 1 6.021620075144757 9.913969558726144 12.638309827814778 -1 0 -1
3521 1 6.93281946808899 10.687619306925077 14.080984542135806 -1 0 0
3380 1 9.196333591079625 9.139862039035709 14.916924290081663 -1 0 0
918 1 8.41812056991134 7.9125104518406975 14.365488816167243 -1 0 0
2712 1 9.110324146656913 9.957791902676558 13.022228967315659 1 1 0
1771 1 10.643368002299523 9.301857202746064 14.735012296649224 -1 0 0
637 1 10.958850808012139 8.727485366137277 13.536256105560748 1 0 -1
1424 1 10.155669812204211 10.181126446601466 14.53120366334754 0 0 -1
1283 1 12.120738212643024 8.85578517957338 14.069959457358673 -1 -2 0
2549 1 11.454516403559381 8.214378127011555 16.194313002333395 -1 0 0
845 1 13.01387242324936 9.808970485318524 12.704373729553303 0 -1 -2
1469 1 12.921632707052739 9.807991080059645 15.790964077721188 -1 0 -1
2315 1 14.103883261266915 8.876305198654185 15.323204685707775 0 -1 0
2696 1 12.86880166875057 10.569863881585139 15.038856565542417 -1 0 0
703 1 15.094334679026183 9.302891761445201 15.903684344538974 1 1 1
964 1 13.648342439180507 10.483195812199055 13.320421537998218 -1 0 -1
1560 1 14.64020867332882 10.99029906830776 13.610588031415062 1 0 -1
2756 1 15.74898538925095 9.601912209745931 15.28411220951621 0 -1 -1
725 1 -1.1188131371764243 8.165715022495338 12.031851307935536 1 -1 -1
2441 1 -0.8454587058697155 10.006592185840242 13.517803475820555 0 -1 0
2908 1 1.5312982143768732 11.399774423604477 12.462449510807124 0 -1 -1
1311 1 -0.15158254976326102 10.855727226718683 13.534640583927796 1 0 0
3581 1 2.3949849907448324 11.560723948592821 13.321017221070603 0 1 -1
499 1 1.0342150585296794 11.90028866307244 13.3554843539959 1 -2 0
1097 1 3.998869573261545 12.1858324967182 12.449683515475748 -1 1 -1
1004 1 1.5779114225223432 10.591592840281367 14.329935920517881 -1 0 0
570 1 3.231922442537411 10.971041069691871 13.057139790579042 -1 -1 -2
803 1 4.563143846117636 12.053346398405528 13.464219953443509 0 -3 0
2595 1 6.3708122678999555 12.112852479068945 15.065098028044712 1 -1 -1
2998 1 7.313128211769243 11.288344713793029 15.012132608635373 0 0 -1
3109 1 7.463530215718752 12.47850022555266 14.693360039401636 -1 1 -1
2079 1 7.996571151162291 10.102142132828284 13.7211627328681 0 0 -2
1718 1 8.837449056274224 11.091238461335008 14.083209181732233 0 1 -1
2126 1 9.656091640011464 10.79460110490968 13.16492549500691 0 0 0
3651 1 10.28531635234502 11.42622480760874 14.162554408960133 0 -2 1
1028 1 11.886374707029274 10.901416295040322 13.035586542966431 0 0 -1
227 1 11.319975416198954 9.998403915960541 14.97566229603505 -1 0 -1
3439 1 11.525080772191618 11.981938335394549 14.8958198103076 0 0 0
1947 1 13.723027160753444 12.020668707332481 12.597293615664356 0 -1 -1
1493 1 12.315913008725403 12.02396949009215 16.121991765611142 1 -1 0
3893 1 11.019675940138894 10.004598286835542 13.827258887175576 0 0 -1
3379 1 12.795784132052999 11.045200298032446 13.461033410015224 0 0 0
3690 1 -0.5382575846548929 11.795955434869452 12.288871266789162 0 -1 -1
3666 1 14.695828641617343 12.24250216483392 13.280784357259911 1 -1 0
2792 1 -1.0346430011287069 12.750740684655085 12.817874902410516 1 0 0
3607 1 -1.151413780487064 13.529182748703693 13.379650969137144 0 0 0
1895 1 -0.6849682062460487 12.008184709130715 14.850216646272472 0 0 0
2239 1 1.5333722224505433 12.390403110657711 12.162324266122937 0 0 0
3299 1 2.0832366705010985 12.610438950130805 14.757344559426663 0 -1 1
3091 1 1.9995530891204658 13.591197394716655 12.35386946242502 0 -1 -1
1154 1 3.875582122606759 12.831396451042638 13.955365176584456 1 -1 -1
325 1 4.272338611086312 12.017880347088624 14.459659173728838 -1 -1 0
926 1 4.533159291297627 13.27713636199079 13.361460164494103 0 1 1
743 1 4.3221759099447405 11.405313319572643 15.645608575817882 0 0 -1
3012 1 6.564700610268682 12.94575499513679 13.000953369300072 0 -1 0
1076 1 4.897240317893502 13.951017832050738 15.353825866381708 0 -1 -1
947 1 7.898480690032329 12.515093410158382 13.380054236535052 0 0 -1
3646 1 8.523815797505428 12.496291978906088 12.418469803363928 -1 0 0
2739 1 5.600932139008836 12.581841916209957 16.139076201235508 -1 -1 0
1770 1 10.531807664211007 13.562029617957338 14.019286867606695 -2 0 0
810 1 9.16233841384919 11.844066746818823 13.06799355599395 -1 -2 0
3438 1 11.097227485180536 11.51338719948423 13.41247436758447 1 0 0
1245 1 12.292275646508795 12.403065532108117 12.949142001810776 -1 0 -1
2275 1 13.142344558645586 13.018039978661507 13.320485397633242 0 -1 0
2420 1 12.041176982042051 11.770308785320351 13.919156882734693 1 -1 -1
2603 1 12.920787332100783 13.156632474121091 11.479274298299334 -1 -1 0
1160 1 13.218426328573214 12.42878697082484 14.345713725880806 -1 0 -1
161 1 14.093020412669153 14.177629373000835 15.424505659095306 -1 -1 0
2182 1 15.731794070253002 12.806612854485559 13.977229816492246 -1 0 -1
2460 1 13.370659035988485 13.159605291853435 15.130488358010709 -2 -2 0
1061 1 -0.9421174114641412 14.468823101937492 13.74847376723681 0 -1 0
3629 1 1.2992727576821923 13.377338662456957 13.039596801430493 0 0 1
1329 1 1.9983762398819205 12.491242256448569 13.669801235412066 0 -1 -1
3262 1 3.157591928717678 13.79335686981562 12.36328407052178 0 -1 0
3706 1 4.73443545967824 12.704703826336042 15.370052349051246 1 0 1
812 1 2.809652355842042 14.33728707363184 14.679315457952873 0 -1 -1
3033 1 3.615049396674231 12.861629242622296 14.964733389896491 0 -1 0
1636 1 5.479279843234257 14.326786253101616 13.255928062412622 0 -1 0
892 1 7.272090028926614 14.121866834954968 13.279511824871177 0 -2 -1
1451 1 7.128479272101002 12.243668494398404 15.840002312621362 -1 0 0
723 1 8.619212281873011 13.763525994369635 13.707869545006144 -2 -1 0
823 1 10.002974096795718 14.798662407687754 12.785846973642355 0 -2 -2
2088 1 12.23342919903783 13.7677942040537 12.749477353462384 -1 -1 -2
1881 1 13.301937707796133 15.283858119190466 14.518486805156785 0 -1 -1
739 1 12.093111697531779 14.87124291832372 13.539727932911134 1 0 1
331 1 11.062392940010627 13.702907493902405 13.091630321361587 -1 0 -1
400 1 13.98397949528192 13.400719616407748 -1.1338400914084799 -1 -1 -1
3433 1 12.33204213382907 15.019430863951388 15.259917767553858 1 0 1
702 1 13.096792689432501 13.800560798288545 13.962379467457527 -1 0 0
1918 1 15.702322645838773 14.315499910715252 13.36658901334304 1 1 -1
2500 1 15.884795300231659 13.864513385550463 14.74987163927598 0 0 -1
2970 1 15.948328528176134 12.766592145220454 15.084715967883575 -1 0 0
1693 1 14.03839806726391 14.279039037204974 14.42207790370983 -1 -1 0
1637 1 16.159865485974272 15.300637703791175 13.069927910713657 1 0 0
1640 1 -0.2520553220138033 15.217271273665375 12.648831958197858 1 0 0
2836 1 -0.6875542932989528 13.45346325600791 14.826613667999947 0 0 0
3072 1 -0.7723244530656068 15.447665545196184 14.795041179670058 1 0 0
1682 1 0.39650115526664576 14.919260922009759 13.375119661132688 0 0 -2
3760 1 1.2195705329182847 16.09048206087229 13.618971582728939 1 -1 -1
1778 1 2.3100148092785577 16.205277038559615 13.712296712686953 0 0 -1
3027 1 2.421453100291233 15.31964140548483 14.505854117428058 0 0 0
2485 1 3.2343818615144 15.88530412138281 14.047192856092368 0 -1 -1
3394 1 4.0881624000549 -0.7802426184445598 14.110805020210607 1 0 -1
61 1 4.278681191304509 -0.6528002860669188 12.883654433520736 -1 0 -1
548 1 4.87037429066904 15.895086546282606 12.3787985936972 0 -1 0
1834 1 3.827940637741622 14.046448016830432 13.374176026725397 0 0 0
1904 1 6.929782595834125 15.567523357098377 13.447109675081702 0 0 -1
88 1 5.159666790665292 -0.15557425725781426 14.133268510558018 -1 1 -1
2933 1 8.930783942272539 -1.2578221122853173 14.130422212900646 0 0 -1
3307 1 7.671435528004681 14.432673449139994 14.408680900388203 0 -1 -1
2600 1 7.365738326675988 12.410646033572002 12.464307283283777 0 1 0
869 1 7.006440299137552 -1.0593895572009888 12.96231198339738 2 1 0
3457 1 8.146333792510138 14.712963933279116 13.444211992265247 0 -1 0
3946 1 9.748828470154283 14.168129915658726 13.683745623696696 0 1 1
2675 1 10.30104422102415 16.00708179598848 14.243477773634142 1 0 -1
2822 1 10.32479137388564 14.415143682101517 14.560759777049249 0 -1 0
962 1 9.92935125898357 14.599027943961744 -1.0825743147059743 0 -2 -1
334 1 11.592533967212383 14.67381604378569 12.445959760815489 -1 -2 -1
615 1 11.831477158692117 13.858391848096318 14.260940988014475 0 0 -1
3711 1 15.404270807412736 15.907878182692727 12.798498957984245 0 -1 1
2972 1 15.670969114671543 14.99923959030129 14.648747487563204 0 -1 0
1231 1 14.929360408983964 14.036928063327554 14.842462847012033 0 0 0
2607 1 -0.34910537507473105 -1.031470307364951 14.887971476207206 1 0 0
3687 1 -0.14055312645679452 -0.8925646449375002 -1.2926046808875853 0 0 0
3351 1 1.4278388830979463 -0.6069259149553552 13.030768855056138 0 0 -1
2539 1 0.5610494094636531 -1.1726784353110298 14.297736628838463 0 1 0
2049 1 3.968992441847143 1.1863486762406792 15.521697423832403 1 -1 0
1949 1 1.7335632847796294 -1.236427009648836 14.59102792047044 1 2 -1
898 1 1.9696869220215403 -0.18552560969412313 13.901116604985226 0 1 -1
1339 1 3.3080833418700095 0.6069708631292605 14.469646308599382 1 1 -1
1143 1 5.0747481824407 0.6865983027791422 15.025742221721014 0 1 -1
3980 1 6.625385596803371 14.920618712392823 15.884856253605449 0 0 -1
1003 1 7.284887109467817 0.4825024801095805 14.540704148559824 1 0 -1
3527 1 6.461550522708967 1.2381948169239463 13.654804291262352 -1 1 0
3133 1 7.503923661973625 16.002795934344523 15.229340092131647 0 0 -1
2391 1 5.62382058753067 1.064776368212025 12.439448889904119 0 0 -1
4 1 8.979789491850267 0.9795042291841929 15.139247694123135 0 -1 -1
899 1 9.99302135346396 -1.1285197460799632 15.733891582478854 0 0 -1
2117 1 11.137068326051581 16.230869883640914 15.939851505487457 0 -1 1
1315 1 12.702790723374292 -0.9511269618652591 14.907888588652263 1 1 -2
801 1 14.432294063604694 16.180202527537816 15.817547988656127 -1 -1 0
411 1 14.203781475276395 -0.3984522508293482 13.918349922993448 -1 0 -2
3547 1 13.948364404979817 0.3339390646687115 14.833683102434492 -1 0 0
2750 1 13.742022754933862 -1.2909086639757497 14.254128869194338 0 2 -1
2299 1 14.974080211812133 -1.2541743732962425 -0.7537045545379448 0 0 0
1495 1 14.728934101446978 -1.2063387656796438 14.316781235085408 0 1 0
2581 1 15.74065416274523 -1.0862138263405983 15.056973313737654 0 0 -1
1781 1 -1.1007926155098988 -0.3068947595161069 14.266522016872523 1 0 -1
160 1 15.57707306924415 0.9519691249934916 13.43977602633986 0 0 -1
1185 1 -0.9047231253666563 0.14096025903759735 15.359255273387593 1 0 -1
301 1 -0.9617971535675496 0.9726734935480641 15.973183014405087 0 1 -2
908 1 0.6677940485965277 2.1421015027539156 15.0939082278827 1 0 -1
1098 1 0.3546084581862674 -0.4010795008719319 15.324104996924447 2 0 -2
557 1 3.4145274808721062 -0.15801601026851197 15.55556291590171 0 0 -2
1607 1 1.3765805659174708 -0.41686277012794715 15.010327809627778 0 0 -1
196 1 2.5294592537756504 0.3399753053872223 15.212241615728082 0 0 -1
2461 1 1.1234313917226761 1.304834969117024 -0.34751999172872505 1 -1 1
3 1 3.0550640019628004 1.6003718160982356 14.776781574666341 -1 -1 -3
2093 1 5.34360177102835 -0.25428647434967133 15.36946903953206 0 0 1
2462 1 4.205646960906826 0.6619140321631476 -1.2454707043702296 0 0 0
3847 1 4.4139303128865945 1.2043088762861665 12.926739108464174 0 1 0
3717 1 5.586455635200082 0.5461980583630668 13.38672728526202 0 0 0
140 1 7.495620311351921 2.0793128724648935 14.784439821361499 -1 0 -1
1861 1 5.583330624474991 -1.1193458270396865 14.185969270007917 0 1 0
1973 1 8.680300500242359 0.07537729811958638 15.465654692319948 1 1 0
2486 1 8.111207231623679 15.600514197103617 13.897245138233576 0 -1 0
2764 1 8.223206829018238 0.07248295346095257 12.786571375763643 0 -1 0
1987 1 8.395896467853685 1.784168459208797 15.905980331116528 1 1 -1
2158 1 11.558133103067572 1.1682230818004196 -0.8091568705013872 1 1 0
1623 1 9.548762758791892 1.5451032648884433 15.957098832115815 0 0 -1
394 1 12.421351126692034 -0.9529997903151247 13.809607391378666 0 0 0
328 1 12.096651213031095 0.9876141048474487 14.335878517663078 -1 1 -2
1234 1 10.483928543094745 -0.5071423661795187 14.921395961901041 1 0 0
3805 1 11.573328013891519 1.5412204697121439 15.380425705904265 0 0 1
2971 1 13.336216786587116 0.7867317274033732 13.926788301184184 0 -1 -1
3492 1 12.998664847294764 1.3793779888080295 15.392694402439837 0 1 1
3009 1 13.14331131685177 1.0251333770295163 12.861839145128311 -1 1 -1
3771 1 14.931530619880107 -0.035964625367541636 16.111560164525812 0 1 1
2781 1 -0.8374536751158403 1.616336271584618 14.160993132053033 1 0 0
2863 1 -1.1603103687012273 3.975999300607694 14.424178242961037 2 1 -1
1608 1 15.710403391666485 2.159652629553691 12.506284820942845 -1 0 0
1390 1 0.3935378283609239 3.112899343645645 14.349613034403744 0 1 -1
2679 1 0.08370090779255634 2.5473353517567077 15.947538268390094 1 0 -1
3333 1 -0.23787540559019926 1.4537670925716935 -0.4862554373070149 -1 0 1
822 1 0.7327188322516478 1.081864734854744 14.454692412431102 1 0 0
3579 1 4.1494180001274685 3.004945044813878 15.475262394568215 1 2 0
148 1 1.5434784805778472 3.0386655563361638 14.610924672385202 2 -1 -2
2278 1 2.241394301510898 4.502224739996907 16.16096561642137 -1 0 0
2297 1 3.1867408605717653 2.032638073947127 -0.36597193842369813 1 0 2
2465 1 3.0819600575407593 3.210397229413621 15.631375618220233 1 0 0
3129 1 2.071869879607837 2.1418006989695266 -0.7225454599042327 1 1 1
3167 1 3.2804759376737467 3.1374694880093825 14.536188963389323 1 0 -1
873 1 4.087596815733156 2.7629476931145778 -0.7151420502065903 0 1 0
2774 1 6.333504330345595 4.767843575672558 16.03612241109792 0 1 0
3693 1 6.251340687955812 3.9630439287414836 -0.5063617973900674 0 0 2
2085 1 6.541869036131363 0.347845661006569 16.21187233653379 0 0 0
3907 1 10.73620387485487 0.9626914903179817 15.318970318570052 1 0 0
2149 1 8.967524347386505 2.2868286070232546 14.948042859865001 -1 0 0
1138 1 7.415798388990602 2.57742343123238 15.763441931962383 1 1 0
3722 1 7.822401929434253 2.3665702040277274 -0.7665436945989282 0 1 1
3738 1 8.366344612329648 2.8178071605178063 15.99471703583276 -1 1 -2
3843 1 10.691204112117845 1.7949921594906955 -1.1597848110070261 0 1 0
3116 1 11.135018071072457 2.2445193327267474 13.675796349561411 1 0 -2
2314 1 11.384933444306572 3.042068738548277 15.441785455494323 0 0 -1
2838 1 11.27855738487921 3.834420580269188 -0.1550938844590768 1 -1 1
719 1 11.68762689766431 2.5449199810611227 14.547249122435321 0 1 -1
409 1 10.788551905537695 4.550867762053114 -0.8702548172059441 0 0 -1
1629 1 13.268978203940032 2.626502122831916 14.70656669284769 1 0 0
193 1 12.072611960951331 3.7395816846695196 16.053487363750005 0 1 -2
1176 1 14.613203523321106 2.7880470850140853 -0.7661197003448248 1 0 0
2661 1 14.87058578398279 1.5710056914446136 -0.9219224241565949 -1 1 0
3276 1 -1.1316283255081376 2.682311947976155 15.675647563342817 1 0 0
1539 1 15.654606469885909 3.296169921117251 14.655000896197132 0 1 -2
3272 1 13.651265714863584 4.385184745589863 16.025817435635474 0 1 1
346 1 0.27647307630432016 5.091253104235264 15.557422999854293 0 2 -1
2844 1 2.0488434349216633 3.6409676792129453 15.418498336247172 1 1 0
3336 1 2.2167111071728596 3.942724235497584 14.387038595390253 1 0 0
2572 1 2.912067638529132 4.321153432044851 15.284682451900537 1 0 -1
740 1 1.38531483683443 5.73738253024979 15.604002830716947 1 1 -1
2850 1 4.643774087152513 4.849089012172443 -0.25026168497099444 -1 0 0
2523 1 4.505392650945522 3.8603435807652238 14.983774117016086 1 1 -1
1910 1 2.644206171903199 5.582597845846223 13.954110495980974 1 2 -1
2854 1 7.309688472946462 3.8383828433716785 0.35222578277047933 1 0 0
2329 1 4.824950920942846 5.551346241986051 13.960651066580319 -2 0 1
3104 1 5.468126137741825 5.678702196264107 0.16647850628940164 0 0 2
3736 1 6.429200659057544 3.1482833131955807 16.000128546812363 -1 -1 1
1496 1 6.413925529468237 2.1980240087070064 15.479725768032932 -1 1 0
3741 1 7.9666228724519215 3.782200089512238 16.135349630803407 1 1 0
686 1 8.117244299290865 4.224147414470132 14.92250881027326 0 -1 -1
556 1 6.699816627833137 5.566781260881985 15.56050239277615 0 0 -1
3829 1 7.321472143929002 4.55937256575718 15.641696712749908 1 1 1
788 1 10.154727219698906 3.7998663209895893 16.012880761872403 1 1 -1
3285 1 9.15337368343573 4.5121602307819115 -0.9028193131921345 0 0 2
2423 1 11.110224049516587 3.5021385963018563 -1.148975728440851 0 1 2
1730 1 8.582964617092616 5.919493846307365 15.810827863563691 -1 0 -1
2261 1 10.869394253193056 4.690377244433196 0.1889979885824331 -1 1 1
494 1 10.959586822339656 4.118184664891158 15.356509091546236 -1 0 0
2059 1 12.405276177220625 5.119403213820758 1.4721289053175854 -1 -1 1
1021 1 11.842920028113431 4.668922318083932 -1.1688806562561211 -1 1 1
3584 1 12.590323699335109 3.551158480696982 14.753232523150238 0 1 0
3067 1 15.676208476801929 5.010153030277583 16.231552033412544 -1 0 -1
1976 1 14.971179653244842 3.7447969171815423 -1.1904398253642725 1 -1 1
54 1 -0.41262408653470006 5.430109455509843 14.693775695113008 -1 -1 -1
339 1 -0.07571771161637386 3.650962247205367 15.655611344127728 -1 0 0
2688 1 0.17733654799660936 4.172715455152036 14.798674452472202 1 1 0
738 1 -0.6656611287478719 6.066526048204254 13.817634373534336 -1 1 0
3637 1 0.7254441928231374 5.135176761272735 14.61707128079105 0 -1 0
583 1 0.016491400622916652 7.237130624181317 14.619671231058797 0 0 -1
271 1 1.1542884704406213 5.078792231459806 -0.7830551787765232 0 0 1
2012 1 3.0310829317320866 6.669377878915009 14.115646751985203 0 -2 -1
2045 1 2.1018470425949065 4.609238542084791 13.652076982267422 -1 0 1
2609 1 3.41306169023364 5.42195093857848 15.965718629076179 -1 0 0
1775 1 3.0351326791136737 5.7880974716134475 14.971002042899944 1 0 0
1603 1 2.476865864981546 2.3487985766707706 15.28927750283665 0 -1 -1
3473 1 3.859345099633903 6.649451244733133 -1.0816519351971177 -1 0 1
3909 1 4.919016060683469 6.376807985845553 15.818779424330021 0 1 0
3686 1 3.8018201185417677 4.795366063571998 15.102898774334832 -1 1 1
2032 1 5.595718736808313 5.999521110113798 14.966453806687024 -1 -1 -1
1486 1 6.4442321489687915 7.289434747537131 -0.8860314460573722 0 1 1
1156 1 5.559466477077114 5.523158679795628 15.866520719190053 1 0 -2
574 1 6.22004898401521 4.5028212549685716 15.026484318542224 0 1 -2
2231 1 6.540529287628837 5.406411956378315 -0.8314578832133697 0 0 1
940 1 8.34354466694377 5.157269612656217 -0.4419992744726322 0 -2 1
912 1 9.5007253092526 5.242189905617917 15.237983742936734 1 0 -1
751 1 12.946208055462794 5.139114385798647 -1.2931436439844042 0 0 0
1487 1 10.399179982591761 6.18898867899652 14.895503555734038 0 0 0
2777 1 10.296112974357312 5.841616336650819 0.17060162675948476 0 1 0
3066 1 12.877733739699051 5.870207451967503 15.540777840930527 0 0 0
3222 1 13.644753364980721 6.173985500587632 -1.1937623138945772 0 0 1
1364 1 12.159608651642786 5.914291374058783 -1.1805300103346474 -1 1 0
3088 1 12.508469964757051 6.9606887364252685 15.68793801682391 0 -1 0
1836 1 12.35248846040206 4.886072478867957 -0.18981027713814003 1 0 1
1049 1 14.55957678933097 3.149361202473572 15.390320115865492 -1 0 0
3253 1 13.560777407571099 6.110625203488152 14.70438997052291 -1 0 1
1971 1 14.614874253138593 6.2031731997182025 15.402898968587152 -1 0 0
8 1 14.948736217394217 5.512475532080005 14.722325908854533 -2 0 -1
1871 1 15.268928889350573 6.657493006738983 16.06900968405244 0 -1 1
2652 1 -0.5072895918460192 6.311513309959968 -0.3789285022643074 0 0 2
2189 1 1.8239946166185712 8.63380130110225 14.638575074134579 -1 -1 -1
3603 1 -0.2912863448696248 6.278636436370603 15.1535033748577 -1 -1 0
2274 1 3.0510809540368617 6.468766436944291 15.781035256573215 0 -1 -1
3038 1 1.2278646689032415 8.421387585021252 15.534184448166688 2 0 0
463 1 3.490062791213359 7.340912052417556 14.791802776896432 -1 1 -1
1139 1 5.664037515996827 7.044833366979342 15.409152787447603 0 1 0
2618 1 3.9602752872946843 7.6154627478638925 -1.0856791219151327 0 1 0
528 1 7.931682200400212 7.3116527922939625 15.8735202660685 0 0 -1
26 1 6.106986939483895 6.345327123159701 13.892305239662614 0 -1 -1
3493 1 6.611350070690961 6.362116996573482 15.014156966163444 -1 -1 0
364 1 9.373266458012 6.519246318897983 14.782810041889693 -1 1 0
1573 1 7.713442372909402 5.908723071704773 -0.9911640181448966 0 0 0
431 1 7.588072150519636 7.177240699699784 -0.7295905655228394 1 0 0
1657 1 7.544964082483803 6.34079231216452 1.0050557883648028 0 -1 1
157 1 8.595863767219017 5.298193983315455 14.363400925722694 0 0 -1
399 1 10.390872644762947 6.37564763538302 -0.9415524256868456 0 1 0
131 1 11.37010933576808 6.612490931685802 15.306797999002793 -1 1 0
1418 1 10.423758079142992 8.083568095787111 -1.1195412751979648 0 0 0
326 1 11.702018139948764 7.583924287297414 15.30433302808132 0 1 -1
3264 1 13.377998694007509 7.374176201966883 -1.0812467832264319 0 0 1
3941 1 14.79510523350639 4.633560336068761 -1.0961902012371487 -1 0 1
3201 1 15.475574509475063 7.673946439302696 15.912572955710608 -1 -1 0
1170 1 1.7735280068782435 7.3938788255441565 -0.029860295390665037 0 0 0
1072 1 -0.4459616261440734 9.567617831342341 15.336262310410632 0 0 -1
3806 1 0.7898946895826517 7.493703576404398 15.351787411233282 0 1 -1
2228 1 0.6957077958241542 9.987166206794912 15.892385701630086 1 1 0
2685 1 2.2212165717407446 8.559383908163145 15.607917559144603 -2 -1 -1
2683 1 2.1694978039788237 6.579968140307456 15.1633280307563 0 1 -1
1000 1 3.064625026707864 8.402263611185322 -0.9786203973875556 1 0 0
1806 1 2.7000345571451714 7.7010144004367245 15.620517530064284 0 0 -1
486 1 2.922737123784689 8.48272990802686 14.819065674156032 -1 -2 1
280 1 2.217334281947154 9.860993322711247 15.849978892620438 1 0 -1
1659 1 3.5870067424109555 8.164591205112684 15.582603062708756 1 0 -1
804 1 5.512114228737737 8.809801236764962 0.5624109977106648 0 -1 1
2507 1 4.772343871272369 8.406179170120051 15.414076896122314 1 -1 0
1296 1 7.072977744943852 7.213481087404926 14.362346192096235 1 -1 0
1214 1 7.63678100183901 7.8594984734581 15.01209468452771 0 -1 0
2020 1 9.238597634637571 8.71403976429004 -0.9967665729432336 0 -1 0
3826 1 8.525225540056269 6.654228113834938 -0.38376176934482664 -1 1 1
1989 1 7.29372942019471 6.404292754706921 15.632139022273346 -1 0 0
1991 1 13.022525819959494 7.755022672380772 15.173767909654696 0 2 -1
2002 1 8.39178817930199 6.329874794458714 14.75100030572171 0 1 1
2361 1 10.849690773103056 8.305217463592289 15.231824566520526 -2 0 0
312 1 12.327738657732315 8.545117693271244 15.260079211616851 0 0 -1
1745 1 10.656947913709184 11.194714141638075 -1.0125525592435394 0 -1 1
1795 1 13.196895338335457 8.847037713503168 15.94704106679784 1 -1 0
3526 1 13.843028782507089 8.027934750358561 15.785652667464614 -2 0 0
1870 1 -0.608086653848138 7.428050141307455 15.418528729161427 1 -1 -1
3402 1 0.03121609208489362 6.676811753098304 16.184294252449146 0 1 0
2065 1 0.5019521477613966 9.73108312250365 14.812744288155528 1 0 0
2780 1 -1.1091055759967325 9.397977959485061 14.443811431744725 1 0 -1
667 1 0.696156648191266 11.048003573945909 14.057347199263722 1 0 0
2880 1 -0.09374887749345673 11.49434437595221 15.671740188034722 1 0 0
2689 1 2.002582680875887 9.70441454917816 14.804759954727345 0 0 0
141 1 3.9824687847524407 10.863581635648103 14.86454850350571 0 -1 -1
3677 1 1.0675939900400846 8.640521856219536 -0.8581121733667529 1 -1 1
1409 1 2.9262804758164114 10.681306157391308 15.458321276332349 0 0 -1
1762 1 4.092482927191033 8.675855744728883 -1.1646764649273358 1 -1 1
646 1 2.9599432411130957 9.485299796470718 -1.155897157680041 0 0 1
3279 1 4.8560737504319835 8.347281098582693 14.243899468177384 1 -2 -1
1953 1 6.165861287213592 8.551997033893691 -1.2160657816200264 1 1 -1
1690 1 3.7339000683904517 10.127990816326133 16.05404939863095 -1 -1 0
2576 1 4.565343723190054 9.778107509028962 15.466683165479985 0 -1 -1
2701 1 7.2467313241445535 10.018846022932488 14.853642613475998 -1 0 -1
3756 1 5.750790506424029 9.879393348417842 16.23196648509974 0 0 0
1253 1 7.614857423308521 8.948063781417552 14.22921000717992 -1 -2 -1
1126 1 8.306990616481675 9.005157612414038 15.904222408124678 -1 0 -1
3800 1 8.297653066110184 9.611182542758046 14.976417889465711 1 0 -1
3189 1 10.573848228567979 8.073136354243964 14.292289217201594 0 1 0
2805 1 9.73397729430291 7.409671242316199 16.019607025415723 1 -1 0
2102 1 11.899200327374462 9.439880958625398 15.781765782878743 0 -1 0
143 1 13.198474117302414 8.715162854510007 14.720673279199154 0 -1 -2
2336 1 12.111830958283575 10.17269251829748 -1.1028634162996573 0 1 0
3851 1 12.575979045069216 11.60368360487686 15.043540575333498 -1 -1 1
632 1 11.743411644430754 10.926905128739842 15.277548763869685 -1 0 0
1147 1 13.843714894354836 10.336388652768242 15.421453402558285 -1 0 -1
308 1 13.799145086191432 10.087692032612543 -0.23100737270635863 0 0 0
2475 1 15.377536473672517 10.223457290451428 16.168233018409214 0 -2 0
1954 1 15.899047949955182 9.177308083839835 -1.1311094551233956 1 1 -1
1278 1 16.142241007166497 8.554085376155072 15.602944530478151 1 1 -1
2885 1 15.590651250768381 12.143026889507741 -0.8326857853578287 -2 0 1
854 1 1.4546486788880246 9.450564325146097 13.817219436291657 1 -1 0
3346 1 -1.1325575773969345 11.267292846555804 13.748138244910113 2 -1 0
3334 1 1.6030855069591325 10.526398672281776 13.198908327256156 0 -1 0
1403 1 1.5366592460976998 10.454958681260974 15.414223147191109 0 0 -1
1905 1 0.6996550746401877 12.04040783921405 15.343908843854834 0 1 0
2900 1 1.6125058740930696 12.450816826974899 16.0694592052767 1 -1 0
307 1 3.4111769307084847 11.657370620015056 15.137755250943037 -1 0 0
3364 1 2.588754278974753 11.172077483020809 14.557568241951909 0 0 0
985 1 2.8141202788285797 10.416741203427282 -0.8592355912080463 0 0 -1
1180 1 3.1888739012551337 11.445416053289955 16.220231268259028 0 0 -1
2291 1 5.454105735744149 11.210758723090002 15.91871935217931 -1 0 0
1852 1 4.7656274831904195 11.879833880004684 -1.163738714552445 0 0 1
3497 1 6.659076138129468 10.133782314013118 -0.179587441959971 1 1 2
3532 1 7.033150675206009 9.670939408416846 13.572220976428524 0 -1 -2
3549 1 6.613448104893563 11.19432472681625 15.678247754290759 1 0 1
374 1 6.850453909805701 11.024544381582663 -0.675512133509408 -1 0 0
63 1 8.029912541807114 11.903151940140965 15.412545049688866 1 0 0
3036 1 7.991478804897042 11.578498615776752 -0.7862207952106065 0 0 1
3499 1 9.853629401673631 9.752271835236435 -1.2940281577600832 0 1 0
1116 1 8.963874628931821 10.028183400253013 14.262032832885684 -1 0 -1
3330 1 8.928237960530671 13.331150917433538 16.152225059017436 -1 -1 0
1318 1 9.081260145471893 11.583708838341243 15.189675285040828 0 -1 -1
718 1 8.254516204501563 10.81842152567169 15.01344962927909 0 0 -1
3179 1 10.600346915369244 10.923757030608186 15.199129697140336 -1 -1 0
978 1 12.516858379707255 9.567263694073228 14.724580303709796 -1 0 -1
1721 1 13.999973313887201 11.510690926340567 15.607315083248743 0 0 -1
485 1 15.76770391535792 11.058285434216163 15.76683015319524 0 -2 -1
2723 1 14.179485542472001 11.948694092269635 14.622753591253693 -1 -1 0
635 1 14.982343475507172 11.088469262814282 15.036304180264882 0 0 -1
197 1 -1.159273454548997 9.923063100043935 15.950857583702039 1 -1 -1
1222 1 -0.9489869184516675 11.79813760696683 0.06029372175052661 1 -1 0
2375 1 -0.5734823152042369 12.745331673091902 14.1417473610737 0 1 0
2288 1 14.844630909617653 11.21028287940221 16.238281413677267 -1 1 1
1602 1 -0.08845538542234954 12.75593459181631 15.580909570634486 1 -1 -1
3349 1 1.0083548119405368 12.638967536380733 14.082044837128775 0 0 1
137 1 2.914622639094131 13.443919342888227 -1.2436733284098118 -1 -1 0
2684 1 2.9292907545550877 12.035454133114674 14.172595429381492 -1 0 0
1540 1 0.6342443260382067 12.585596559228293 -1.0506304655322674 0 0 2
831 1 2.9057484241425664 12.409623604385562 15.599288738267688 0 -1 -1
1042 1 3.313321520598218 13.737823258350842 15.18993394350096 0 -1 -2
1734 1 4.718526891692329 12.548966262863027 -0.28891324810180197 -1 -1 1
2081 1 6.445626132201426 13.308059236032204 15.23938698881081 -1 -1 0
1740 1 5.182714760838318 13.367603369601104 -0.7988495065860228 0 0 2
498 1 6.572683484650654 13.009798375668462 -1.1746987218238787 0 0 0
16 1 8.774538137135563 11.213543661834889 -1.2507890983977288 -1 -1 0
276 1 9.3694864610933 12.705654039016203 15.317647024363552 -1 0 -1
91 1 12.310320288983243 12.999327440030731 13.883497328971117 0 -1 -1
868 1 9.238894529416651 13.65673488892651 14.590699828344508 -1 -2 0
2879 1 10.533754132872197 12.301249408403532 15.279751972915182 1 -1 0
2366 1 8.773750370708566 12.244139336493854 16.20725428084376 -1 0 -2
1821 1 11.350514108417494 13.065413506328024 15.428167346616853 0 -1 0
3112 1 11.846402166267803 13.018908590638535 -1.0965943688484545 0 0 0
1367 1 12.657838697628986 12.33923097334091 -0.46275409011253743 0 -1 0
2745 1 12.07518755083401 10.47669840642091 14.386692811711018 0 0 -1
1078 1 14.393887181974684 12.008917155582825 -0.708726792880803 0 -1 1
3462 1 15.02169427302277 12.920603684442028 -0.6555633213148551 0 0 0
1240 1 14.262337490382812 12.512855613708819 15.631141090551289 0 0 0
92 1 15.684607396034433 11.80191621035598 14.50707799585116 0 0 -1
517 1 15.240337769876934 12.154019921562142 15.487954117072995 0 0 -1
273 1 -1.1686485271679812 13.518154460542933 15.745133033343336 0 0 -1
378 1 -0.23270556282549926 11.827634812270514 13.414083209764556 0 0 0
1962 1 0.5314531364833173 13.798028279554964 15.582300828820056 0 1 0
811 1 0.16560451937156095 13.33088804077948 14.030677811274927 1 -2 1
1672 1 1.3602320926589018 14.680339010572181 11.750364650001805 0 -1 -1
3781 1 1.9276489526558427 14.77927796792778 15.282405740498035 0 0 -1
3119 1 2.0419266723807747 13.476791761189977 15.68374309721155 1 0 1
327 1 0.08193325364336101 14.849722570316729 16.170069975744205 0 0 0
1862 1 1.1895940943037608 13.610057463369417 14.482971947520912 1 1 -1
790 1 2.8493761641726296 14.40888424690249 15.799632229709996 0 0 0
1506 1 6.569221502791904 14.156537317897971 14.188787783180809 0 1 0
487 1 4.151661192971848 13.869793045271827 14.529327232648022 0 -1 -1
722 1 3.7668457489818694 15.467598184167418 13.243250046145922 -2 0 -1
3724 1 7.303789572902648 13.2371530279038 -0.38313094738133835 0 -1 1
1254 1 7.199926692116698 13.32150609058707 14.188140571410758 -1 -1 0
2069 1 6.93766021036199 14.283055999971255 15.25013357003424 -1 -1 1
3329 1 6.895600469083986 15.289991013299115 14.475368896322228 0 1 0
1909 1 6.376154862533866 15.780259096973992 15.284127517836641 -1 0 0
3610 1 8.652000221068498 12.855353444125353 14.305148403753938 0 -1 0
3571 1 9.66243255326436 12.375287110843356 14.374039994178856 -1 0 -1
117 1 10.375134189851128 13.448977363536647 15.23567919256957 0 -1 -1
391 1 12.45668104125426 12.626396032775391 15.15857877213826 -1 0 -2
2867 1 10.10988997840273 15.323647796375681 15.251579439904312 0 -1 0
329 1 12.919335023004797 16.07272588268409 -0.2144420009070409 -1 -1 -1
525 1 12.23596369261216 14.015656764271354 -0.6743554200449028 -1 -2 0
3068 1 13.372343680281457 12.44993052626435 16.227576283772965 0 -1 0
1631 1 12.572147499698437 15.088134199201864 -0.6277519238804263 0 -1 1
2318 1 12.925479933276282 13.45982539308516 -1.1847478870002293 -1 0 0
1150 1 14.6415537228974 14.51286100269929 16.184397593446807 -1 0 0
1867 1 15.20422232073119 13.429973690207106 15.843801439972598 0 -1 1
3952 1 15.937169230852561 14.878291804713015 15.618152869667266 0 0 0
3031 1 -0.16400666950203546 13.510659520630634 -1.255162610636266 1 0 2
1354 1 1.0638048612157966 15.421680567174057 14.560962745900847 1 -1 -1
2632 1 -0.49778519446548963 14.327238709542772 15.383092348797419 0 0 0
2914 1 0.027339590770606215 14.740885155302976 14.631229810593718 0 0 0
2710 1 0.03532426431081981 15.440582386608739 15.374367495021325 0 -1 0
3578 1 4.0343097820726825 -0.9498343304911037 15.137856950788656 0 1 0
2412 1 3.7365744672612067 15.02554146388523 15.444860994763225 0 -1 0
1052 1 2.7921237254405336 -0.44676362125551694 14.56942923965664 -1 0 -1
907 1 3.265823354532727 15.579897159210898 16.193107368960558 0 -1 -1
375 1 4.174396095609971 15.428995335813067 -0.7959921791934567 1 0 1
1356 1 4.3171586260197685 14.539772552608195 16.096845965288463 0 1 -1
3613 1 4.0319284229799734 13.495664235280296 15.832142493484422 -1 -1 0
1858 1 8.200313700639661 -0.7127080489116279 13.622238613801603 0 0 0
162 1 7.260963498813867 16.17189943340727 16.172602263612333 0 -2 -1
1902 1 5.316465892301544 16.188109524432566 15.17211887713292 1 0 0
758 1 6.333581936453143 -0.7577297556477166 -0.6369921064673688 0 1 1
1337 1 5.388661016394828 14.833994689213714 15.384193759456032 1 -1 1
3556 1 8.66811733290908 14.689557186456364 14.500042153133968 1 0 0
3322 1 9.519849273565605 -0.7157758834798496 14.770309923058718 -1 0 -1
1381 1 8.869715142401649 15.295628715048842 16.075703020786037 0 -1 0
1620 1 7.9212136581096715 15.965287780536027 12.913621733798243 0 -2 0
2826 1 11.191462688268732 14.137608239521997 15.018972510363358 0 0 0
1043 1 11.238933536500408 -1.1944221476996202 14.476060612206618 0 -1 -1
3560 1 9.567161127685097 15.14218302964347 13.972685862322427 1 1 0
2901 1 12.108025742430252 13.789568405782267 15.44369387627502 0 -1 1
2819 1 13.320196491838987 15.86056209808007 15.879622973995026 -1 -1 -1
3437 1 13.667688737526529 15.143428346783136 -0.7535378738509435 0 1 1
2570 1 15.772334983684352 15.742188844437305 -1.2011545910745824 0 0 1
2176 1 14.764609594066435 12.988697272544044 14.880218261391171 0 0 -1
3996 1 15.603300238409336 14.476284161049092 -0.7782958013816734 0 0 1
3512 1 14.121476984162985 15.297199623142994 15.53191528549593 0 -1 -1

Velocities

684 0.9792249509111733 1.3755561777651593 1.7982690271333461
3440 -1.3744475886057914 -1.4062389135841142 0.7644728156013139
2957 0.6996671533429705 -0.00072696536535453 -1.3851462973338189
1835 1.5601493500878456 -1.0707193165679896 -1.211948202379287
2424 0.015793080116996566 0.3797486939212326 -0.39594496351713215
297 0.33311463410493136 -0.2875593600527664 1.027048716194226
952 0.5806932805913537 0.16997257819192158 0.01984172409779444
582 0.6131916633389238 1.3655709106304805 0.37849865992525245
2808 -0.5168957901825221 -1.2384489067857976 0.044606106016858466
3730 0.35525127241771454 -0.1605937735044245 0.2983327674984434
1035 -1.1517970839436915 2.3312490375725714 -0.815063633517738
3302 0.45925725466220735 0.46357513686478535 -2.1370667823608294
436 0.03972343103253432 1.7959824504504764 0.6299738709607625
1633 -0.4057082679237535 -0.7831238103418207 1.4678267818930806
111 -0.6041005925373547 -1.8400297807553458 -1.8357285861697485
1144 -0.1584060194458339 0.22801107729940895 -0.7116547610954942
2586 -1.072257582145396 1.2957724888824866 -1.0219290744821594
178 -0.6947265034800536 -0.7259694240132117 0.6808984060350634
3305 0.4301882415286944 -1.1959736146783149 -0.865137633935026
2695 -0.8868076771381997 0.07360738862269588 0.42545521897488425
2575 1.2318139473216347 0.3857991638854231 -2.2699134351690686
3470 0.6161396780621231 -0.5589571915046587 -0.6070308721966666
561 -1.3263638896301138 0.4545455727922946 0.2754118002853563
865 -0.41053419537337815 0.2671811566591355 0.47826811746790127
2565 2.3369552413569 0.7404141140559416 -0.9412618349085514
1319 1.2957587072836287 -0.9338034248930285 -0.4224423346392973
3275 0.32181438602441303 1.7874625289188337 -0.7008431044948609
3919 0.2911720356236302 0.09266990814627118 0.8682314629142169
2650 0.27722337326440616 -0.4215208397449779 0.2671438516382911
543 0.06224714417657759 1.1490626263596018 -1.2791199523300916
1345 0.003588990610331978 0.36988111770833126 0.05493764379657405
3981 -0.35166687582119094 -0.3412804522758952 -0.03972175088814893
135 0.8138495505113202 -1.1644238511154983 -0.6826321501217577
474 1.015790262821054 0.49296568249877354 -0.5496664546906282
2556 1.8627956069289942 -0.7686531270953239 0.002399879291982216
3335 0.07611513941954536 0.780088291544505 0.6088062991248933
1177 0.2401507511223031 -0.7003978932662711 0.04458264211453822
2907 0.7989432326336007 0.04662148531488545 -0.5380324891546806
422 -0.0883784225974109 0.8397447699203286 0.2778028840182874
1022 -0.4942410686719168 0.7933899036728707 -0.7465040804509137
226 -0.26946691274430973 -0.910889457956403 -1.5318723909783707
712 1.1104445912059657 1.18459892338778 -1.0331606813073533
3415 -0.5957972926732759 0.8223985702751542 -1.0474947571192672
401 -2.1887453993340094 0.33771511432928725 -0.1788535602983715
377 -0.6974970699250521 -0.32400846208442124 -0.7693162226300493
3494 -0.08519638416099751 0.5182760993271393 -0.5198512671848037
473 1.3593052409150497 -0.04889710042782767 0.4422810098429206
516 0.03994247336378526 -0.6650460574773238 0.3822467275490909
1422 0.8329995772925991 -0.026715423743855833 2.508896168772217
2498 -1.4348415318219274 0.2876305749549637 -1.3858691319490097
1650 -1.1391596186324742 0.721123459092853 0.6132113718508603
919 0.29707219762953174 -1.066199424517375 0.6030727515301987
3663 0.6059855171924659 0.10462049280903649 0.4399041838627436
757 0.6950039093261887 -0.801354279920008 -0.1510979143647666
531 -0.8798182715848644 1.386289304332919 -1.2733480576078737
122 0.043705384808165965 0.9434057735690224 -0.0032440154025151035
2080 -1.6696393900193414 0.9787266991348523 -0.5007316154351059
838 0.03991027617467512 1.0627591343752771 -0.5409400990274943
1064 0.4748132277673713 -1.68777921898153 -0.511926918877409
2599 -0.8517144401787438 0.3200623257165591 -0.3672699099107192
2999 0.09169417167657726 0.26985097019278503 0.5087592325636263
3944 0.6385991700748316 -0.7229588566712593 -1.7905099113226624
2374 0.7172640862306837 1.1283957561284703 0.13436955233614653
541 0.5180450253447743 -1.4227689460591222 -0.8755651172340118
298 -0.5690907129227841 0.7879184766780587 -1.0731733909631742
292 1.4362312348522692 -2.1487419451205962 -0.5360785117496402
2666 0.10072861235184678 0.8806177960291647 0.8464868418998143
3932 -0.44870388238582903 -1.2987256413237829 -0.7418246553749227
3041 -0.588761317068767 1.3127559412439993 1.6717807258542348
1336 0.42894364536228125 -0.262078220345193 1.9796992398818771
3135 0.5514544867993308 0.5018628211339807 0.09661405964388463
695 -0.6360157797952178 0.21084602214364703 -0.9891391171661519
884 -0.8090512106492195 -0.031070236742575037 -1.7661740042808904
460 -0.7465613550257642 0.4780419419990823 0.3501361392415476
1735 -0.7041413251952943 -0.7684544440539233 1.2364361944352351
3892 0.26208457913425554 0.904776040996898 -0.3614646698555151
2641 -0.6255865368669317 1.0396403505667913 -0.914297535230082
3472 -0.5606027560846876 1.465277119958223 0.5534047460973055
1267 0.13330581817482276 -0.46944566047323 -0.4972907322001773
3778 0.7488661718036723 0.14952214300831443 -0.5819911380873847
3436 0.7555214597706507 -0.4089175485067053 -0.6002466408256363
1396 -0.5938946477750954 0.20688503120310744 1.232372396952906
1058 -0.5738968914421623 -0.3103267739506668 0.3624662006812692
1592 1.052329971515883 1.4235652618571797 1.0919932211943602
3812 0.2607931121298037 -1.3001818700947245 0.5811441710634017
3588 -1.3686180609904444 0.772409941369013 0.9620632203575861
3178 -0.05693563222581267 0.8531526250267658 0.08665829913356822
2221 -0.9738075311664594 -0.669000683932945 -1.4271435559964052
759 0.07494996858601057 1.4194831226013245 0.3080449837731869
710 0.21414165456551612 -0.3888155747502964 -0.2005876496836153
3927 0.9026862563878798 0.05069617129624139 -1.6522901866632973
629 -1.202197970012388 -0.5603925723365671 -0.4234572206010907
3657 -0.6366917646780881 0.7896497060219084 0.0848950733364769
3397 -0.08917399706910731 0.10354384677301226 -1.3532366880273665
1168 0.18180007120077152 -0.6887139284016822 -0.025725152286668003
1514 1.8398388903035072 0.6742942556293254 1.9736796426913161
134 -0.7067275076069296 -0.7763215628041301 -0.7510634886747002
785 -0.6636962529255669 0.8970349232221246 -0.10510972511400603
1140 0.48374698734138094 -0.9358894587558931 0.028183671573317
421 1.8493594532046997 0.19004603111122698 0.28017689297509857
1979 -1.6017841348693613 -0.4819851330172113 -0.6247440870384088
3744 0.17204997601443783 2.0495383683669193 0.07581024714539801
3567 0.15167450885580047 0.1555634936447156 1.3383895817463243
3475 -1.5876273319398828 -0.8639744664643517 0.2959026002774494
1030 1.7899713427323247 -0.17268156448260624 0.8608129091928612
450 -2.048363654754784 1.5743616289169886 0.9428722300614272
2143 -1.3269226279121813 0.7450379356659389 -1.237991970709338
454 0.38516763975558843 -0.37948112233103903 -1.4949337006781902
1887 -0.6145400298097451 0.020087991587798996 -0.9150004822596381
1297 -0.2905936458898415 0.9032094455096047 -1.3350978130435136
317 -0.734642174887019 -1.1361056001902023 1.9838825031021072
1019 -0.3320090827436558 2.2194487159317497 0.14636214683052784
2926 -0.14837147513517812 0.016632133229341796 -0.303283736485697
1405 -0.10715518228633508 1.5253013707819008 0.21153713966149773
1417 -1.7124337509768657 -1.1682039509495064 -0.576131181669441
355 0.15685547244206127 1.2411650940141734 0.36229845317681286
2259 -0.12094248839875475 -0.24728082907119434 1.4710015972770376
878 -1.6065796249760589 0.047327563985810686 -2.4084216044762514
1736 0.865815566249441 -0.41372108743296804 -0.3085339566705728
3672 0.4661498086976146 -0.9175374086640518 -1.1999322944863586
240 1.0983249152195544 0.7352006239636097 -0.8039758111051475
3506 0.3667145776766627 -0.9637045764854237 0.2622883651287175
1128 0.1298797741987291 0.5107426822324046 -0.4049961104886578
741 0.8049187875355783 1.6294716963405045 0.4068878926019167
1324 -0.8552403134910211 -0.30051875633222136 -0.6535191648691394
2544 -1.0999148572798525 -1.5867304939228533 0.7550959523380046
3191 0.061180900417125296 -1.2534178360437798 0.10878311699542914
1124 -2.1204568519444154 -0.20099779800008655 -0.40175183186255553
3869 -1.8868328040961957 1.2628695062196664 1.3797104604888935
1224 0.522220563207201 0.8917521259429828 1.5057113672769113
2876 -0.20363426503955365 -0.9025131522399344 0.8020499204927147
3004 -1.3600337204224946 0.7917749058602804 0.09651982845101145
709 0.15052287890751026 -0.4186119041868225 -1.45909413976225
2939 -0.9868583077829475 0.7366550708563109 0.30754033541367104
314 -0.49738086159123684 1.3864347749350403 0.2158504903351679
1498 -0.020779029622710412 -0.5279133089709503 0.9653030563511088
3698 -0.8415546739061919 -2.1514266808850064 -0.38083446679532124
1816 -2.194851639085727 -0.048705785916254386 -1.2791992698635244
3204 0.12869005938739944 -0.12170930292122867 1.2719148508652642
2378 0.30898976735493927 1.2968015040501615 0.16142379939252155
745 -0.6936222335725263 1.1097697639221475 -0.2740903818621836
1526 0.41742131033237456 -0.3639074681454085 -0.4153330420913355
397 -0.750628907611991 -0.1214931619286241 -1.6177533770130361
3796 -1.1131403594408398 -0.2629384596942074 1.278670958244679
2835 0.5975037360688742 -1.307514201167162 -0.09941014627799422
2194 0.6790692755537644 -1.0920165732279397 0.10699480297191948
2878 -0.6245115252715603 0.6302007489634631 0.7750334991262611
2037 0.00801982964315841 -1.1230423373688174 -1.2936740972073912
3808 -0.799171825308431 1.5429326988484955 -2.2963250606847403
1960 -1.057158688657431 -0.6158035845631092 1.6272428241732708
1323 -1.233512346531038 1.9027856572002617 -0.6801783551646386
1934 -0.6946948891131955 0.18715016310146598 0.36966080220583913
365 0.36288818427393427 -0.9360946858982443 -0.9012420493457205
1731 0.045457510869049 1.472840012010465 -0.473876079140038
2203 1.1484030146212032 -1.662702224812533 0.603533520964447
764 0.0575408009086904 -1.0995247484917665 0.2178508421863024
2670 1.2182472096590418 -1.0989905725539943 -0.6683517037467649
2596 -1.0618809134359455 0.30354859239449067 -0.7706013865099528
497 0.15079328551232127 1.1516154670842362 0.4620229400663999
3266 -0.13522402340767736 0.9394908865936128 -1.6049252528849005
1515 1.0364371049644994 1.4378431648946841 2.2589187080815303
3764 0.961438380147547 -0.26199690640245005 -1.6642515669039275
3235 0.29521961630989024 1.336900114302971 1.7367936973064935
2590 -0.662476222463838 1.5064315353609365 -0.3614087766362805
513 -0.5431224642044188 1.008817207201614 1.2669521013873362
3047 -2.2698877463087648 -1.3876102173319587 0.5432621565055741
2766 -0.9923500076947377 -0.3308643162669904 0.6263185878357715
839 -0.07128578991784576 -1.158257564361884 -2.155818819098461
245 0.09988626251826027 0.9433839585578858 -1.1382437570953305
880 -0.9547981756451698 0.9027575078934255 -1.2836361458986874
1664 -0.3797674871659504 -1.2842367855263015 0.329666530351947
3110 -2.4685713567068555 0.21417231794142522 0.31128065850660785
1106 1.4532725973939034 0.14701865417830048 -0.4386630325447012
235 -1.6431030617028228 1.3814053532031996 -1.1311852858126603
60 0.3504251978915859 -0.25738306071718575 -1.1162546525903096
959 0.5514359851818369 -0.6977123892043505 0.2268806371118493
1347 1.4623581129344532 -1.249130785678455 -2.3706254842505987
3102 0.9171499021908264 -0.2496626644560778 0.044394035416328796
2849 -0.4731594728172031 -1.1245607154125867 -0.04778248518520944
3233 0.2181098085470541 0.16964979975338335 -0.15989884072788493
1930 -0.4465733168217041 -2.0896569918146963 -1.1782250204015945
3289 1.5818128439368515 -0.3236475611141252 0.9239268783167823
458 1.1950596930827586 -0.38633568884257763 -0.3170482837331262
3997 -0.8675965851277966 -0.690400488279195 0.4123981432306186
2204 -0.5984919327472771 0.5048300860999975 -0.10153257604276951
2733 -1.621354588178156 -0.9776301745089845 2.307376695020137
1357 -0.7281271817084629 0.2813179165307516 -0.10661799111923287
1395 0.8708370405834515 -0.8344667002729534 2.1089922298996875
2200 -0.20756758109724496 -0.18325263359232744 -0.38230690136519874
3673 2.5404530295893255 -0.04430384832659532 1.2976440119271138
2042 1.0375908482272198 0.8281327517187721 -0.9016222273695007
1108 0.8739390944450064 0.7957879593306937 -0.5517226131728228
3960 0.1726046604493099 0.2992488962003994 -0.5074498981550115
2097 -0.5843592382286619 -0.4239204417107957 0.256505137145223
1294 0.7200039499356417 0.8018884214645383 -0.8736087873492453
567 -0.6810756305152431 0.11055831025936337 -1.3622100084645057
2095 -0.18245199867438822 -0.36577817828779985 -0.3697896298190821
1812 -1.871009058083073 0.020990024212972618 -1.344083060914079
1419 0.07684303403869462 0.11802336916847404 0.4541993496434913
3820 -1.490418968963571 0.24669494473165932 -0.7462047472471888
766 -0.3769765866458182 0.2851911800694354 0.8850565798719484
2307 2.2951755350496184 1.2022671190130565 0.6854360640257599
1189 -0.591537660368311 1.158345485628586 -0.5544118406331339
2547 0.863408094671243 -0.4079944504989518 -0.8285692924426552
45 0.25892657667500313 0.5088671366374816 -0.5958070988269186
3654 1.2121217856732862 -0.1938185630582388 0.8864761960486045
1614 0.3171082316736869 1.3075216724125032 -0.18800706657949515
3361 -0.6179310286545948 -0.7006862216970865 0.2768323327202961
598 -1.260412945643178 -0.522869472055788 -0.6753907923969594
2573 1.639072964450177 -0.7708839425947653 -0.3179593568278509
440 -0.5789501841245703 -0.690358604889812 -0.0700751027793084
653 0.10642608751120047 0.7348257727741513 0.5778667345945304
2252 0.8782628988295763 -0.06160674316137671 0.20492278131043598
2094 2.254911754880538 0.6112176227461323 -0.19538148600244612
1328 -1.7017648839612831 1.70798729792422 0.7884553441170546
428 0.3512267022357848 -1.2823948299375219 -1.2848188191621353
3229 1.3256593770539609 1.1336694347701806 -0.4625874675581441
3401 -1.4554981535679552 1.1797937523388824 0.545024162248538
1016 0.17875638526945606 1.5355738474351575 -0.0554201065376284
1228 1.1255418837507958 -0.2345674303009174 2.02392228825099
988 0.19005237760867524 -0.8849822972890387 0.8616444493868274
3500 0.6023410666299929 -1.0970049156342758 -1.7059145958426722
2092 0.1788632697936654 -1.740347559708247 -0.6808220022211205
357 0.053392237933239495 -0.6128260276239388 0.6649781924568973
1321 0.7275420388114743 -0.9431073158271616 0.0764198117059826
1387 -1.248079930925629 0.9773798273253648 1.4487471020775209
783 -0.06298735733572824 2.042649639072007 0.42897983217076174
3572 0.24541412027266862 -0.7525573422512617 0.21380302691535133
2982 -1.036622406663885 0.005902151638531929 -0.2825037205456297
1554 -0.8179444348443772 -0.3262405925166211 -0.28165127038148235
518 -0.5313280771705178 -1.979579738306559 -0.9625025714394212
3098 1.6314411817871886 -1.2751479198608766 -0.3722599176384224
1481 -0.913049868817956 1.0985314286668684 0.8049482236141018
3537 0.45632436814916727 0.9058944576298722 1.460388301324559
32 0.67985629968382 -0.311273686540675 -0.955683608043623
3822 1.2637866474717392 0.16240038982025395 -0.8829188143329133
66 0.9429125004179637 -0.6709844984725901 0.37692279567749937
2887 -0.13459604371004694 1.0457953470075252 -0.3534282432756822
2213 0.7503351359373731 0.5335264657100336 -0.5513540685937034
2491 -0.19557910343297497 0.41989945237917625 0.38432500232583644
3377 -2.930115917284764 -1.5209001101346062 -0.5789557763953436
575 -1.242704166314447 -0.24642469090700753 -0.9755344747203297
3959 2.2615048258519344 0.005908548609195119 0.38116065569676877
2617 -0.6509602353353922 0.7261208683500091 0.9860068533835102
2183 0.9503001976797513 -0.3775197673377163 -0.5656037218088034
1566 -0.9217283694668837 -0.8113066957586756 0.6630839711962664
2127 0.621474930293239 -0.29116276262399654 0.2956388235128484
800 -0.8316972553143643 1.7789722039028235 -0.6942146276544708
268 -1.622982415253007 1.2437817302198315 -0.8115839204417226
231 -2.063999257013651 1.1920337683101616 -0.8185775575072218
3169 -0.26825340195622194 0.03017615049652207 -0.7116857786967286
2961 -0.6133533302646111 -1.8564583791340636 0.9970270949235517
1273 -0.5128170177714386 0.4203444254671003 1.4418519676168426
247 -0.6467219205452368 -0.6552189573398806 -0.7133286390754269
3270 -0.6285910600743925 -0.3403559169394897 0.774992107492165
1115 -0.887786336457086 0.5653125566400024 -1.6833025605555163
3815 0.305696337798102 0.7302508278442313 1.129348571176146
1263 -1.3079328522739648 0.3433753355723216 1.7623903591787784
1326 1.5882577475205828 1.2045407172134912 -0.5768773739938717
1642 -0.5512217038604014 0.14523404455214353 1.0219247960164577
435 0.35013556361631043 -1.2977709606532015 1.308125771810402
2247 -0.4159383390198689 -0.7506232095492267 0.3412345102514944
2979 -0.14819533803468 0.3624757691567637 -0.5350017486840914
2995 0.2955461180680277 -2.0906948615335583 -0.012368634458529645
3524 1.253818437755775 -0.973736331859374 -0.17992802058177418
1483 -1.4745071053536205 -1.2171631484096899 1.2629106378813937
2529 0.26739385174211916 1.4842475570370974 -0.1393092075618736
262 1.0501947738026853 0.6428446523323502 2.0067637534254223
521 -0.7023704876820109 1.3452448376175288 -0.8565057061726326
2545 0.3293964707982452 -1.005129023438526 -0.745394466223011
3763 -0.47868683197263867 0.38363391483159803 -0.7966094645845961
97 -0.05045408507740486 1.390411286393747 -1.9418890884171454
2631 1.1493822427436353 0.7243567186594014 -0.7140299958493072
1433 0.37688178219450924 -0.1255810722431963 1.3683058075188177
1146 -1.396284306736079 -0.39260509042391556 0.22390562775833397
1684 -0.808680269793056 -0.42448867025986187 -0.9990929358349726
863 0.3638768716600385 0.4336395815291046 0.35866052840406043
2676 0.7398610167264347 1.4164972523799357 -0.491109809355092
242 -0.7112134977296943 0.44686589541380983 0.020674183399096022
672 0.5974352244618093 -0.2930041467752762 -1.3211677291817499
1340 0.04524069047381362 0.9070953499446898 -0.2779097882210044
2429 0.18133346340777573 -0.9791793509534088 0.2544624232918351
1709 -2.2718424031808455 0.47283786529833904 -0.016827674150471424
2612 -0.3090178389906964 1.0509280389623683 0.3185022025444158
821 -0.9197346387497449 1.2815674867458309 -1.246922390486364
2051 -0.39299108751707085 0.5325415708714599 -0.5639394185662655
963 0.785654647529648 -0.3104031262125552 -1.4671570354792633
514 -0.5297355727116592 1.4081114753750534 2.2975662073528786
3350 0.05898805325278465 1.497133984389779 0.20989751483958632
2494 0.29526368055144514 0.6539341665309948 -0.030082504508123446
3789 -0.39993807459837416 0.7747633929431744 0.8657636856716976
2886 0.7925871526597141 -1.4273854737194758 -0.6753515279648769
2834 -0.6953849476554421 1.8928756885493734 -1.2827494478101062
2452 -1.4122202206793584 0.45156346152299237 -0.7366950013009442
3220 -1.685912697878222 -0.06462919098400259 0.043524762455432485
3115 0.0864483518060768 -0.21427119954440088 1.0023025020436405
3017 0.44172783446451197 -0.40726634047418286 -0.44997031839562074
2197 0.4735971547227611 -0.3370322675037558 0.07715561954494636
2160 -0.16416901579734766 -0.5208831791863903 0.5746845061703495
123 0.8290786768638855 -1.8381647865029038 -1.3868443939227544
2098 -0.7214219723767294 0.7301532603922132 0.21632301388293573
1825 -0.3216111372439866 1.1208008542018821 1.8082413960696584
1676 0.6804292775922897 0.7886067556948352 0.10647662426962172
2292 1.8574544112315265 0.8729878119609867 0.7413705553417905
89 -1.3902545724664832 -1.186527629274324 0.1895590998770003
1645 -0.7840557510877592 -0.11446378216725821 -0.7846865641670762
1618 -0.1611279016669452 1.5691454450148694 0.2035233117765188
1688 -0.7523440539721566 -1.6325675777746955 0.02303391678688636
1238 -0.8338204094608774 -1.092399500984703 0.3830899820622504
102 0.754257940484984 0.03494427694058678 0.15527775973247948
3546 -0.253450157155108 -1.28219930914429 1.249509807103326
3089 0.761426126353235 0.2446725246467404 0.5125647527473441
2730 0.8353800669368453 -0.22334279339250532 -1.1774800694690466
2889 0.09131125634805155 -0.9504460502395193 0.4320066348160635
3875 -0.6563600438877359 2.255216084015039 0.058695977332105444
2358 -1.1359205063786861 -0.6935276529423686 -0.19115204987860407
1520 2.380220912973402 -0.6444763634280163 0.7404640964796062
2713 -0.04454373653172484 -2.323878470648235 1.6760850732186017
534 0.7127491635827627 -0.6507454672569472 -1.1973777783940964
778 -0.08208330517003372 -0.17298973848548402 -0.5859657655485155
1671 0.27341573437964733 -0.2617358983378898 -0.2577422020499865
2280 0.172595508132489 -1.4011625953696876 -0.2298377321196706
2966 2.0690845700735587 1.1889347740842569 -1.6339949684486368
1680 -0.8566815303801503 0.7600659181251013 -1.29657230445217
1132 -0.08563700684735229 -0.17568056241406338 0.36887845302319966
1538 -0.25694775544411486 0.2666605334901418 -0.24936270799487087
3207 -1.6576490043150804 0.11075553540402207 -2.212428466659822
2185 0.6850329426329286 -0.1491362492689167 -0.25006838261415915
752 0.8930377332657685 -1.7649653626367607 0.6452151228137576
2148 0.10537188131703201 -0.045632566858940835 -1.3725590672792396
1737 0.2521918263492807 -0.23031959008786984 0.3136178050245266
1303 0.7079298961277379 1.1442212796091407 0.6635056888953498
418 -2.109426991826341 0.3369946278229073 0.8898707235183012
3014 -0.1472804474741472 1.412319109628964 -1.4417057583388322
1652 0.2136958070089713 -2.073822427793969 1.3386574526574833
3857 0.7308216146081552 0.6908634016794049 -1.012014143889074
3366 -0.45795447856313926 1.2587702797815892 0.4066961451935036
2077 -1.1797852464116034 0.4415948121306443 0.7265960959271917
249 0.12695244918170318 -1.4724195729537541 1.8100896122569707
1133 -0.9918309522198878 -1.1375579527255475 0.1457914459752431
1599 -0.8629179750646576 0.2631078473142844 1.2234590203387647
1400 1.9626821255626128 1.9363379534012342 0.6507928782123176
793 0.12284112184375363 -0.9729112712650134 2.010296992095314
2220 -0.3016810043055229 -0.8979987645971476 -1.0819624054313233
2179 1.1760783149588163 -0.5896491977463578 -2.4351286427431758
3671 -0.7824211561661476 -1.3217771843156803 0.09115767320215225
2227 -0.08838701450179125 0.41718292003405943 0.017916877361602877
15 -1.1154814736850043 -0.026378572765526114 0.2940199827243406
2610 -0.6556050733645976 -0.8840080689168742 -0.36147609371702144
765 1.6852394124081331 -0.15422297132830268 -0.31400695294946185
3897 -1.0486105612308665 0.45811561299635833 0.8681068602367896
2682 1.1652916226421588 -0.44193800336547634 -1.2200253169165263
1805 0.17373095814188022 -0.5438372385166427 1.3803102688856494
2249 -1.3258635654971276 0.7506477162267586 0.41979480234550587
68 0.47281928181010313 0.2715436850933869 -0.32556156514980444
1548 1.0173676868330654 0.9807274356273314 0.3928671224562147
833 -1.6291993562655582 -2.8698865318669076 0.05918243016466482
443 -2.817445706344753 1.6057801966657594 -0.5109387666135503
3448 0.9999382945305688 0.44387275101987206 0.40254433943116136
842 0.9052119101310155 -1.3369237770842737 0.13197921954127387
101 -1.4888993655185934 -1.2534567693542118 -0.26201636781070353
3580 0.154775435560325 -0.17612094616065552 0.19387204250211598
1741 -1.7622168377810252 0.023808711744267172 0.21794847642283685
3344 0.7878218563626332 0.3445166420044015 0.733281329502911
2281 1.3593143863330088 -1.4373100956274958 1.5476433923184723
3834 0.5271358501374692 -1.606902237162247 1.0764076938523637
860 -0.8273133021910104 -0.21782545663301947 0.3036480546087725
2557 0.20102478230143137 -0.0020355679704769604 0.4640126707804306
84 -0.9717362214993018 -0.35811009856141734 0.4281855552101411
217 -0.24341982722342945 1.1177297144155092 -0.19264684751221092
2736 0.11140508114590915 -0.8072051143238916 0.25970339557762595
3030 -0.4459171989901362 -1.1294618998980166 -0.21016996748382727
2888 -1.1945156463558328 -0.9896025913853695 -2.8648839009003657
1074 0.3911479367949681 -1.3949964076567822 -1.4824636497134893
3243 1.0946629953776366 0.37662803136331025 -0.29253517957307845
2449 -0.5102211275081501 -0.8781003273326542 -0.01898040691254163
3479 -1.1504027393407812 1.8032180895863168 0.0038641215794554193
526 -1.4137892097301075 0.55167851709152 0.47211639544014317
847 0.17151105800294292 0.003101129591021851 1.0631981857832786
2708 2.1364198467626716 -1.1976593152870814 -0.8137115139274927
659 0.7464725216946007 2.30033021309459 0.07535552968252925
3406 -0.4968337889278415 -0.8803946354183261 -0.5087745152880166
1007 -1.467824059690139 0.8188286947541923 0.8205334853940813
2828 -0.26811917127705703 1.6730446399967651 1.7788769742302963
1921 0.4080460038404595 -0.7793945954137358 0.21751115036333712
3045 -1.3779979078911504 2.8390545562261957 -1.9353403673487457
3978 -0.40918907722428133 0.4807981599127324 1.05799275274604
1376 -1.1715376972315024 -1.4427944437568279 -1.4434617660169435
727 -0.06645251506117983 -1.6078254715313027 -1.1240426755358754
1678 -0.2062423681148182 2.2891975070994057 1.3112063911396141
3551 1.5107159864280786 -0.13645401694982004 -0.14130129042008302
3920 -0.3784581053281259 -1.8190550393389204 0.17149146768571416
2446 0.024577369065291902 0.9092323041828865 -0.11132933576994157
562 0.7537155466090121 1.4621349671832544 2.439792750458799
1264 0.5349665273194136 -0.3401348551075267 1.6667684660976463
1427 0.8546540905373953 -2.1445783495061477 0.3142580599879594
3983 -0.3796662738073655 0.6405945150599031 -0.12391785392058874
1880 0.17912164792963484 -1.172269303875599 -0.9896592369113839
3224 -0.22476107048250163 0.17178007528846093 -0.4314349021835178
1330 -1.2965999361815492 -0.010547515104991877 1.5241021960727668
322 0.26403013341506504 1.3379241234693344 0.9551093938801949
633 -0.09466227662326548 -0.4420416484457959 0.6782737100547132
3612 0.02131175058681261 -1.0288724068972195 -0.08470821993326393
3459 -1.232817465248818 1.1056355728240659 -0.6632804377628218
2435 -1.2466035465490906 -0.7198327876439009 -1.1123662181994196
3238 -0.47617478396060287 0.9141891276683045 2.3173488805057865
2818 0.9380211495199886 -0.0003352772151493049 -1.1514761601529555
2866 1.8560672431263867 -1.0540411653339046 -1.7945619160873727
3444 0.6829748344789932 -0.3310510699956107 0.915913759084859
2923 0.8310103245821362 -1.893573091533308 -0.7624760687376299
3759 -2.5580825281175903 -0.4923219982157781 -0.8989865258709561
2013 -0.7508234681284259 0.8584641111555777 2.506256355908968
441 0.11738130602337303 -0.7254979350413224 0.4047695908762306
1513 1.0503213099717952 0.08192385882447871 -1.654987244219155
1335 0.42730097404977324 -0.06393869946772579 -1.0484186692408066
1198 0.3348137443366449 -1.6328619960624011 -0.7163184993496791
2341 0.09474091084907381 -0.10874224579632927 -1.8198268510257982
931 0.16405134820011288 1.1074622033994994 -0.8802290139962352
3940 0.0491717841956478 -0.7441354484151279 0.014988908758478433
1298 0.17953165117901015 0.2710305205779026 -0.941809563976748
1470 1.5184862698031119 3.4605258193250776 1.0572248725774382
3075 -0.9308932417535958 -0.9661637798608899 -0.9125840981976443
3984 0.7575996113468223 1.026564331988179 0.454729283216048
3324 -1.3546849972297719 -1.6143116043015466 -1.5936327277689926
1302 2.4248393108741317 -2.7538982532148233 1.9815470624933398
2411 -0.8195259720399732 -0.8184042620959723 -0.4720655652827154
1600 0.2721255256087389 -0.7100566804748509 -0.8042566313546746
354 0.35709739684076935 0.2758952420875843 0.26264928408267757
1808 0.5979289840158107 0.8017953427988758 0.24927664996903232
2224 -0.00062525083220077 -1.9854540465447215 -0.11695690484615902
917 1.4690296786209045 -0.6164150615359866 0.6689072814343489
2025 0.27440528773404677 -1.6533068245130906 0.5237790709837116
219 -1.4993350597167494 -0.9512782207715811 0.03039846570897309
2869 -0.09700964785555848 1.3834893676850373 -0.8377519130049649
3409 -1.1599135557178655 0.9195223501232137 -0.49093987062699174
172 1.3659797889802106 0.23666850322322353 -1.5867451776566468
270 0.7095329845891901 0.4943268737935457 0.152804828838531
180 -1.3357036916531961 0.7465308197469155 2.3177543846126882
1761 -0.9229793788033316 0.913302408296874 0.5224826177834218
1348 -1.1081234050788147 -1.1023852151296258 -0.5234997756372078
3953 2.9853967753391477 0.25961859931917997 -0.2935974280810706
3718 -1.1583597101058798 0.9872686622760758 0.07115874200451472
3369 0.5831536144977543 -0.22720068937729826 -0.4594828836841021
1662 1.4438641869332736 -1.2836728583719843 0.4946132641096098
1243 -0.49047865933758716 -0.5614832378304754 -1.235858454011848
1524 0.15909963275639974 0.4330457210715616 0.5045301869599568
1832 -0.6915214494933584 -0.832212857950789 0.759092643561031
1271 -0.4856380366819136 0.49326650125513616 0.8025736426083655
2857 0.6440221122192846 -1.12957940258983 1.0971380854494717
3638 0.4959274872743256 -1.3801508334500403 -1.6440689254267022
3393 -0.6297493635316403 -0.6141448076881287 -0.07911995743266567
3855 -0.6267463863116589 -1.1653421638979213 -0.10212172381212399
2830 -0.18557601426033846 0.696502312151051 -1.4749514070136513
2799 1.9056360836610728 -0.9675571973705498 -1.3058214390080738
1112 -1.6803946555087224 1.2348224121863622 -2.210738451718212
2662 0.3359912005708326 0.13246068401749123 -0.054304174440751994
3814 0.09225173281081983 -0.21884719227818691 -0.9491914015987851
1268 -0.9455967660940366 -0.5956917752771569 -0.7175811034033293
3720 0.6673695758877919 -0.2099282640128839 -0.80529669279499
691 -1.5287125091418463 -0.9167259290440417 0.229376904595572
3074 1.0423618358384208 -1.8778101340129332 0.6175774431172697
3691 -0.6632684187113106 0.9732166902093009 0.46228927431477224
453 -0.05991570762647579 0.5129155140403142 -1.1405725608574857
2636 -1.333766565570498 -0.5708573277954581 -0.41580092300900945
2389 -0.9291870943533712 -0.14043085851409187 -0.4726347157623308
2897 0.7516297551645993 -1.461556009786538 -0.10469941713441754
648 -0.9883002168089746 0.1766779189412478 0.5876408725931324
1818 -0.375741380634218 -0.2088558841099967 -1.947896151552418
3006 0.07112539375898592 -1.149242926248017 0.5483925451912007
3398 0.6230995591267346 2.078733518492538 -0.8019326216288173
932 -1.297211081623714 -0.018474583215650098 0.08118098268188241
3872 0.015549232372646807 0.3826543607109414 0.9285301856035949
624 0.7503556108228185 0.5866557107706458 1.2616669617701837
1048 -1.004105251131744 -0.9817988015750175 1.5094861363918513
1732 -0.7742559516119092 0.9346129335423644 0.15926941825872099
2078 0.9624200397260141 -1.0384711123629407 1.4421496797694635
3986 1.2093601556796119 1.115928555985238 -1.9676906552549946
2555 0.3308410118870177 1.1630237659053746 1.8895061054901592
3287 1.7710972887069143 -1.5337077972692268 0.02794331223123283
2073 -1.1118833800372412 1.1131798338384993 0.36104809808860155
1404 -0.8146136072905077 -0.195493170095458 1.5978927029719416
2136 -0.762865835464901 -1.255981411320416 2.096096594618198
2785 -0.7050257528668152 -0.16469447055560937 2.776279419527208
2199 -2.407174274257415 0.8480711129824445 -0.2361528124957563
2647 1.1097409045233082 -0.16621119186810515 -0.6844854538061511
3114 -0.3294681593503055 -0.8114946412899825 0.9161854075191985
2678 0.4255887418152839 -0.38871348232167324 -0.6715789536910435
2233 1.9115223810217186 0.8359469901662085 0.6015470275162109
552 -0.7643588448326392 -0.5128098338013835 1.2180630793312102
3555 -1.156290195253817 0.7881251008008965 -1.5073878727399679
2451 0.6802242623972025 1.9689299532826017 0.14158927160142223
971 -0.43575911746023044 1.747097923200549 1.5091929855067727
2913 -0.7405391585926296 0.49432068023957604 1.5999546114917242
107 1.2674364370797186 0.904503748249131 0.9794070890712459
3503 1.3365517777269804 0.028532156867500442 0.5739046412821035
2067 1.5193221012506928 1.0460283002923092 0.5446450794658398
2320 0.5214548204407427 -1.9553005009893158 0.5701041971231204
3117 -0.4027874925725679 0.8515141893690703 0.9641809904943646
2399 -1.9888190221791278 -0.3675069806204375 0.14101383225966968
2417 -1.7527121833234518 -0.014714434072194095 -0.2710633220845555
1468 2.2350194931726324 1.1334149729718874 0.003197140300315551
2801 1.2234724108904582 -0.05396315957877275 -1.0353264570509713
502 -0.6666815334924888 -0.0939111772771858 -1.0107473025395473
643 -0.16637556464920877 0.5952604607594569 -0.13879633010641232
171 0.24809879998586087 -0.5209159036522611 1.211477195764551
3053 -1.4469172915143653 1.4676418178399733 0.8410348967783495
2070 0.8564977184028687 1.7128638019326754 0.3055789186450838
3832 -1.2263178903082939 0.7120921343875513 -1.5259494667063396
1853 0.8596562168898824 0.9365642386285418 1.3090037364060405
2489 0.9222074315016336 -0.7831623438863862 -0.4592585751685253
1624 -0.8496683758018022 -2.642489227473489 -1.9099913188934257
755 -0.05609112031648657 0.668517986165296 -0.4288864167435304
1725 0.339180336276488 -0.7446226893407377 -1.1917675141606685
2300 0.567254204815378 0.8797085079238953 0.7869334088397432
3257 -1.1302127418496217 -0.0534036112517332 -0.9256930101255113
1457 0.39447235711115614 0.07766753360915205 -0.7979720981399298
3658 0.6018839671904719 -1.551176085609826 -1.552852400560827
675 -1.0406062748152929 -0.5057637375172978 1.1446037599809977
1220 1.8723259719221452 -0.4918934376123074 0.7937684697606101
3166 -1.7381671839964243 0.6388606440513385 -1.388729416356451
3277 -0.3130042466407786 -0.6253353169198832 -0.3271278717864688
762 -0.8160017394163086 1.756938190379582 -0.8187645463513787
999 0.7142661532784029 0.5911215896678468 -0.6787879369479319
1519 -0.8940955817749104 1.1144928186288596 0.46203803936269183
3034 0.12579549349091884 0.4778101410534632 0.06342689075905737
956 1.7536083862424985 -0.12732852208186515 -0.09994676219527976
2580 -1.2811811737432313 -0.593354368151081 0.3019227700801007
1256 -2.237517626800958 0.23467642673800226 -0.5549120502555862
1413 0.4179416930653688 0.9431185570230688 0.38753114542907546
3381 -0.027382483538996614 -0.5239247806361573 1.6331024555307132
351 0.37140245347526407 -0.7107151272438282 -0.5088468826668692
806 -0.007418595455451737 -0.1410029319302612 -1.5920681250624344
1842 -0.12572215841788031 -0.8870938924049588 0.5593614043262091
340 0.6644418494988971 0.45160126153658564 -1.1226143145031924
492 -1.4247047603403225 0.18797228267269747 1.3705965994495641
1125 0.3326051375964506 -2.2837843723372973 0.07444284747379522
2742 0.500922355023773 -1.2255545853449246 -0.4607303555919487
1008 -0.4711376963028193 1.6174667957991857 0.7850280239550306
2506 0.06678604439324363 1.4663636405873781 -0.8608117973922864
2110 0.09254894689552656 -0.6272503921572566 0.029664023512442718
1056 0.6234432872781959 -0.655711453985932 0.5557165899363687
442 -0.11425460237841474 0.6273586127564972 1.6578461509072147
3928 -1.1617367071880966 0.569518723331432 0.23505617379461494
1017 0.9132293879250929 0.4701855833643743 0.43828095162108355
13 -0.7233429951967028 0.921972126183409 -0.2112490450981551
3522 -1.3880612606066443 -0.19969371171174471 2.3391403502718613
2322 1.009627603035892 -1.039002984636116 -0.4594574013038188
2993 1.1700286422096342 0.018292854812646978 0.07588141343644031
77 0.49242655407901903 -1.195040054627446 -1.4024982444128362
2725 -0.7932020841913151 -1.3272138025766327 -0.26741288948118436
286 -0.5482283886413707 -0.2223107916471003 -1.4006865209250472
3165 0.25494943989432445 0.7689940207623353 -0.7077322646022742
3356 -0.47524532520177 -0.9124986605260144 -1.1228323256141803
2407 0.2127060404616975 -0.712289086788176 -1.088155925041301
2193 1.7831101425431661 -0.6034586994767728 -0.43503315927077535
2120 -0.792993346273252 -0.6562098224501541 -1.302703191312181
819 0.3167601496491772 -1.0420529087686754 0.9333521624839981
1726 -1.600766872677326 0.7676238035181113 0.8170943900935258
3481 -0.4301051800119441 -1.122548388757987 -1.0690246561315642
844 1.0810501775211578 1.794817516517568 0.010814242512890263
3743 0.16810077875732615 0.28182703655099145 0.4709715671613425
2566 -1.1124441777128948 0.688074948866057 -0.1701406352427543
349 1.2308810337841825 1.4305550418124684 0.45794462509799483
3231 0.29650713387275196 0.9729254076204262 0.15876699699770833
3001 0.1592748335462869 -0.4720068253539459 -0.6002103116171568
3699 1.235029250910536 -1.9708844271730743 1.1086086890382758
179 -1.1415861575263984 1.2338987347400596 0.1246839405156489
445 0.9192136199662576 -0.004928429082204316 -0.04586017555009648
1190 -0.24576284249310332 -0.2720161666379035 0.8407246303312875
291 0.23499350955498244 1.2615997295616963 -0.8895447369417985
3668 1.1273642395153831 -1.3852434175398827 -0.01699672630716286
1831 -0.6279613075687459 -1.4268034496508382 1.591812181863483
2644 0.34437503957070015 -0.18500868253878622 -0.4886291906600823
106 0.24853819499940005 0.8339732798812586 -1.8783011804514271
2615 -2.4225673187039165 1.3177785710506806 -0.26641390917912283
2608 1.3502763100961492 -0.708986296436448 -0.0527486856244521
1039 0.31457345544524284 0.0010751550469683341 0.22514252480737745
2144 1.0450578373764932 -1.1354592688703402 -0.22899825293681839
2383 0.9679372662003393 0.63130562143948 -0.6700973494350704
3525 -0.33923784439586996 0.04399640588320879 0.3926827880987574
1142 0.5006246957109863 1.5575835621773824 1.6159000798913754
2984 -0.15856903473824918 0.7520784014564872 1.6851281770872415
3714 -1.5086756773393504 -0.3865365978649667 -0.11975456331233748
965 0.137925291134006 -1.9084075271950969 0.3089962866175187
3358 0.5598890105229926 -0.933386377835466 0.06810600730547754
2353 -0.6157142773542895 1.4347688176720603 -1.1133062179809032
852 -0.8546113156896453 -0.679399674775797 0.36048343462666077
3925 0.3488136602752584 0.4588669931858956 0.616893711089176
398 1.1681365913758952 -0.4151091827560951 -0.852988883459667
1751 1.523178240878219 1.2787956511757896 -0.32789434340401635
2811 1.2249726687811004 0.38971051847964855 0.9665398289986418
2406 0.14586426457407306 -0.2797497377485803 1.3282576459482935
3733 2.22807522768837 -0.42521856464664654 -0.4811036763194429
3339 0.7340537170144167 -0.8809860304247229 -0.27662212609831754
756 1.3233362374422615 -0.8756969936498358 1.0142024101530962
3111 -0.21167052267876665 0.8197711761028411 0.7876210990353275
3293 -1.0224618954710312 -0.737317475919657 -0.6629100927754292
1212 1.2238682796307296 0.2807458634680456 0.8720019678927389
538 -0.36554751936681923 -1.6819291747840353 -1.2955590562600865
3316 -0.7219806276172285 -1.362175525651565 -0.7664723250565247
113 -0.8108880196563216 -0.29108184661563835 1.3539570247334087
1521 1.1958357813011993 0.588047950675802 0.6554461746758511
1537 0.04946215829986177 1.9844582855831643 1.4542923010137279
1206 -0.08077649324196302 0.6686681077752697 0.761833004558331
1291 -0.7165882913185904 0.6361316667924374 0.4571043847660558
2438 0.6129925450671337 -0.8684496906263086 1.1265272876779902
306 -0.3531337701600777 -0.0076764923139655316 0.5101250295235166
1860 0.0489023510143505 -0.8178057954026428 -2.0995073468383354
3825 -0.807575394393299 0.35918710947497534 -0.7214994734144593
1366 -0.1717101625686643 0.252048121843767 -0.5824897970870422
2116 -1.7587606725358058 0.18848231885575972 0.33133201800070744
304 1.0521602859444366 -0.49231105449858187 1.1209216889166453
3966 0.7600743285092548 0.1409476634285371 0.6560173196729336
3290 1.0706708103125 0.7913835409452927 1.983709026824945
3860 -1.7712869179502817 -0.7492275756001345 -2.839460782077335
1997 0.6951639483223989 0.05901658944363571 0.3970806633567466
644 -0.9717999264770866 -1.8315768408336406 0.09671220982487352
1249 0.6678039891304502 -0.6002915444345513 -0.3999248405583729
2921 -2.078576175809136 3.1318723427116866 -0.8257737786499736
3876 0.36141610990277007 0.146703698204388 0.21772045266701223
2006 0.8410535634571797 -0.8387935858244171 0.17290713342441077
2273 -0.9385797983062315 -0.8069027927643396 1.060081653198713
2881 0.17284476055655335 -0.6680679212481957 1.208523333643326
579 1.4404150159426683 -1.3022053310237875 -0.5371862927117826
2944 0.5854679481695592 0.991256731470778 -0.50184194892436
2938 -1.7710559061756217 -0.7503316367206955 -0.12467986335248518
3937 0.0025804558534109133 -0.040586746892820276 -0.1970802091747148
2439 -0.6263247595984792 -0.16110812065351052 0.3375164638343367
2793 1.1341746338346972 -0.06827572823399458 0.08428701063439602
2053 -2.596124598986458 0.5636777637922245 -0.5903416371693284
3198 0.9017157978983567 -0.1497198999145951 -0.9494325634532427
2206 1.038997265875129 1.49410365761633 -0.06794599698950693
3823 0.24617781526488938 -1.4169698100588854 -0.41310438726642457
1716 1.2147051002796168 -0.7792217347857391 0.7588274525949943
3487 -1.9598011482559647 -2.0110046978210376 -0.8623780371396361
2130 -1.747097530114773 -0.05963184949201809 1.9148109497868306
3489 -0.8929989420421695 -0.015931606069494283 0.49035675871256196
1026 -0.5265106048499398 -1.0626605251282584 -2.230797611935017
2983 1.753185998945277 -1.1759933295853926 -0.4245852842816232
2443 0.12176011671546062 0.2236731703942036 -0.1021803825354259
523 -0.08304603807269773 -2.170913127202212 -0.4430425219673154
2769 1.8339483591698167 1.3668447790238292 -0.462616368348157
1384 1.7959462355504046 0.39004973640320184 -0.5209842447241971
3898 0.4487980207376403 0.6431210463247716 -1.9117367400738963
3539 -1.035521444138345 -0.16022484260444306 0.2677465829726563
1094 -0.2965572778572782 1.1773917909786003 0.21726108026581073
1715 0.37398948158925577 -0.20584518010475322 -1.950209763386618
2613 -1.3832162627122015 1.2164507157295068 0.4111200116070066
2671 1.7456021602046095 -1.4720108950162052 0.6565784951730304
3021 -1.0133521027609593 0.7116008501030877 0.6997494190509518
3972 1.3263048457061368 1.3861395362392335 0.5112055088938172
3895 -0.07219399700895594 0.39565341160633244 0.1722470912900184
587 -2.3197302820766423 -0.567734656416695 0.36500608468431284
3585 -0.5383053610492156 0.27260139968452285 -0.6644439558081486
2364 -2.0994521302775575 -0.4460936662801379 -1.715880460258697
549 0.40089749354390813 -1.4339015753747943 0.4515535029794892
2035 0.5306807306579274 -0.21414373206991813 0.48968886274023454
1885 -0.7875155760289182 0.5060093680690207 -1.4963740526509401
3840 -0.24270054533222302 1.3831922797659348 0.7017112217807379
3863 -0.43929677795948924 -0.15353636399081735 0.10803359902534344
2546 2.578091489506377 -0.6686178943108743 -0.5488194150383887
508 0.1648196148274725 0.22569464951998888 1.1013053861383408
383 -0.41121522562303703 -1.0641975257788185 0.6529640534206662
537 0.09041100021435385 0.38522044355962176 0.21471988380424836
829 0.10231712588065661 0.764883569864515 -0.5726859886658305
2241 0.9258200459325859 -0.04864017391214944 -0.9130220218680066
3933 0.054751703659933926 0.02065081335795462 1.2445035096744836
385 1.0744277809317373 0.7321066456223274 0.47165067958849766
3785 1.3650424522048243 -1.281766327064675 1.782053108509724
3049 -0.7513314770919718 -1.792220502722482 -1.7310843072560926
3688 -0.4829116761216227 -1.2594852736469053 0.49773188665285734
1031 0.6889359735836754 0.08668216593738517 -1.6323187124715368
1153 0.6568035964718488 1.4852934545182044 -0.2659334945277737
228 -0.20859950911778585 0.9077577704670139 -0.46291889216938487
2812 -0.632714492868717 -0.11888902300445056 -1.8436566104194723
3597 -0.3323185796088593 0.11898424897332166 -0.01959436253908845
3443 -0.6521666730675726 -2.2313392354873467 0.45463654496597977
2677 -0.224835525807208 0.5280656259640049 -0.9156389268807067
3461 -0.9632385652229886 1.1016180121600552 -0.04519956961870498
3592 0.17014779279612013 1.3586613069729105 0.1422992259814405
3267 1.13046043080002 0.11785758425559231 -0.4561224167147657
3210 -0.9838848863818773 -0.04128703181340838 0.9932380748938634
2862 -2.4228455650292506 1.3631976736108813 -0.3197714421101088
2992 0.7886125747542917 1.56106664823451 0.36817776330928287
935 0.5304226055240108 -0.43786233889099185 0.26197145375020026
3529 -0.43970305437831714 0.9931378578999129 -2.0072148474758795
1099 0.6936757955089529 -1.4136154759921118 0.912953366933799
3498 -1.3628455243664253 -1.3594093543273444 0.4500602032282175
2928 -0.8526872740167162 -1.0649608251116662 -0.8663490673242372
11 -0.6750720586912283 -0.1340129527080759 1.0338937113779019
3060 0.9502390708682399 0.5288346477815625 0.002311820612064185
215 -0.14485472805838553 -0.698316059856481 0.4507968941390988
1550 -0.19647268147127503 -1.3920131748894127 0.46955269166176705
3974 0.2633539269075816 0.14416400857337364 0.011328526616759312
3269 -0.4273719045194124 0.34004943229437873 -0.24045315546077328
2471 0.22828251485243836 1.3791888768542504 -0.9670295341716316
3182 -1.6769170665205422 -0.7325264978238135 0.5171283477236346
183 -0.8701613348660291 -0.8450173600379304 0.8465293223210215
692 0.2827248147233489 0.9655114195276153 0.38692447862103185
3476 0.4811126550975769 1.508432072821353 -1.2573213623954573
2959 0.1339594799193408 0.9220910312664472 -1.6433366508040423
568 0.02972256818287576 1.267864319532714 1.1898972500295282
384 -0.31816928021019975 0.17229440329079512 1.1926990573061824
850 -0.6485125615216897 1.4734218021143137 0.1158740411976978
2262 -0.23876867894396053 -1.1049094457741102 0.9858672845569673
1755 -0.7669628896183264 1.8355667393523587 0.9596984474762041
2105 0.0632852729301496 0.44763806475436085 0.29218974634823697
2943 0.6301437472049712 0.3712542414217242 -1.142496808509019
2043 0.4548768278505992 0.2632164598702694 -0.44518492806214993
2258 -1.7558804479009478 -2.044312724354422 -0.6287635340792116
713 -0.6191918886718759 0.567800483896493 0.6967447339554281
1438 -1.037810944239327 0.5759062980877049 -0.11890132777530303
1282 -0.9441440125294789 -1.3440512175940644 -2.2897109227490824
3292 2.51167858252144 0.8511302210859014 -1.075921017444735
1720 -0.05138285829003386 -0.883902058102659 0.6251282780612466
3345 -2.1346356162314506 -2.5684037321413484 -1.1753386807856476
1251 -0.6159089617989413 -0.698241074171516 -1.2473294841402087
1932 -0.6181915233986639 -0.7016945706390652 0.400620292036776
2896 -0.6467552240890889 0.3030046261751228 -0.17379432067057105
3451 -0.546409431831052 -0.38687035268380315 1.0755541155565969
1292 2.365404456946363 -0.6938327657642539 1.389157184399569
2690 0.8959830267532549 0.08267305721435975 -0.33196868858290624
3554 1.6721380927280018 -0.02294528161286102 0.7997689715858282
1088 -0.48950204867124425 1.1083896267426794 -1.2804748985568426
1205 -1.7928629549077164 -1.038145064079614 0.2634966370202705
651 0.43764583640965415 0.7147431928082352 -0.22231424195513155
2039 2.552372658313536 0.051525928031473656 0.8980790416509937
1456 -0.434615112217923 -0.5604416969305457 -1.1166277861785356
2316 -0.4746570941375615 0.22794210822866273 -1.2694924858358345
1355 1.9534879161369914 -1.0419967075796124 -0.05119764060519458
348 -0.6558346311035596 2.710241751564834 -0.8337775618865084
1695 0.3351983831020758 -0.3739652200852455 1.1925532051574959
1952 0.521592706739142 0.9482814086777759 -1.5816678227161691
370 0.7164784302922091 -1.3442300775604665 1.434412182956327
3977 0.32088552887419436 0.7554514713991353 -0.5344081014298512
1822 -0.7467480542711628 0.5052728071588194 -1.6940658677589648
1385 -0.9164223231162149 -1.1757940353542242 1.2478751788351574
429 0.3117444199705407 0.2573366410309031 0.6016253554597792
302 0.27520080986860157 0.16119571330514101 -0.75218404879033
1577 1.398214501492539 -0.7696068940990527 -1.2747725916702115
2605 1.73401523370661 -0.34400125355763717 0.5650608699865437
2234 0.7608650262816588 0.3830852681280833 -0.9184838596680615
1575 1.0878077366991534 2.243901155862067 0.22324628904374133
1999 -0.02256826767751984 -0.14550124411258705 -0.9409800363730264
640 -0.0023488506735854222 -1.0828795032582856 -0.295109978767454
3202 -0.06114042663369028 -0.517377294932697 0.996332584060776
1463 1.466586015064548 -0.3339919719240265 -1.086871471374421
386 -0.09891414732626673 0.4964290708335026 -1.62056871232893
1942 -1.0007026230925988 0.42651196488594795 0.407234466551258
3480 0.89169349203105 -1.2203043961928544 0.4333388962070997
1211 0.8017298895479736 0.7313556080306286 -0.09005441002354106
2267 -0.6752518269215709 -1.6118928571544757 -2.772337481169484
3375 1.4048945624951716 -0.66727683365044 -1.0514544133677965
945 -1.5608073704150018 0.45295896385693735 0.765652847849008
1779 0.38516287872785415 -1.3474572136804737 2.8273550490250865
2310 1.2176290679828408 2.0931161125823965 1.2218792588061895
3155 -0.5563006495374894 -1.4610491524669509 0.253656986243368
2131 -0.23962405946686655 -1.39574612603505 0.9022483792755384
3513 -0.15602282739496595 -0.6375997047186424 -0.5207335618827531
3679 -0.23023147914405084 -1.58991231231242 0.5778665724605913
2797 -0.3529577514888906 0.23525926507369863 -0.00236852429489362
834 0.16384134074204265 -1.2902217624475742 -2.1555394603756253
90 0.7649194156764311 0.4892951212466652 0.2831306700842714
506 -1.71441053336212 -0.8681856173769851 -0.14403734877898386
2584 0.18322743603335054 -2.1970945098340255 0.0991997040384485
1994 -0.3388321012048472 -0.5733001341238053 0.8506743824370689
1374 -1.3989053511390688 -0.5452810394309947 0.4341507445668849
192 0.4188091487898659 -1.345471377599303 -1.3553159492098867
2245 0.08372082013003226 1.8093255794956657 -1.284818644473257
1179 -0.5625620732165796 1.0956911489937702 1.0416209472961275
2139 0.6816872424461946 1.0595746446932128 -1.0669768772233186
1882 -0.710513395235386 2.0971480201785235 0.15059577141954442
2333 -0.944518996572708 -0.40734546746911343 0.3135430003545355
1013 0.4145704914058459 1.3843438933267045 0.8296197648712573
754 -0.9717780910525455 0.9687998298196321 1.4442821141891051
890 -0.47960653737324754 -0.27864431132152956 0.8659357653238474
2927 0.5385429026128646 2.5218128841883045 1.0332787909093948
1365 -0.22814851407471326 -0.36457622332311207 -0.9228192285265227
2008 -0.5535316360491261 -1.6097824992511478 -1.250821798153058
2402 -0.4411473159162409 0.8518907951370274 0.9428314874275443
285 1.1640357230913863 -0.2832521201961098 -0.6742773489620962
1096 0.9344774437167539 0.4070804673803551 0.6497483645428898
3656 0.3217292902356055 -1.8088605476158166 -0.6893662988158382
283 -0.5686569057368427 -0.682297424232583 1.3042251567959893
3609 2.754468205650104 -0.9572126798762812 0.6372203246615111
2716 0.6236739629741872 0.009653538914988524 -1.7388942754269396
476 1.1247111328425372 -1.8329984259630623 0.3725339766770511
2722 0.3533569267802458 -0.09876104230526514 -0.8143004689344164
1517 -0.588876377644869 -0.14798315076854246 0.18685775090132076
2376 0.5115245867042626 -0.2761575798331363 -0.30480941838694614
154 0.018650191432685603 0.9922540290784067 -0.2604537834436344
1454 -1.3771355016994422 1.2593166604823642 0.0302606426440254
1876 -0.6449685015012441 -2.5898475548876316 -2.065810091165258
2271 -0.3889487619466734 -0.2617942388701076 1.7178679607140255
883 0.2889103632731223 -0.5942089295716998 0.5219456075889791
1950 1.2329110777935477 0.9411367497150086 -1.0742793601550902
153 1.299198563509892 0.056170491617209085 2.4775590645048955
1571 -0.5498406287832264 0.21003327638085328 -0.04686594780394262
1430 -0.8217788521449075 1.703696774026459 0.2086145786502945
2922 -0.4655876361856116 -0.9934320619755761 -1.0607774891173298
3485 0.23039101033926468 -0.011676422854728708 -0.1423363340430524
864 0.7598139040915951 1.35676242657666 0.29355712009988877
1299 -0.25865975132952007 -1.1910303673504326 0.23742955061115462
3988 -0.6954883910053582 0.21033131897197352 1.8847218633429637
2442 -1.6795924740289678 1.6003737337899184 -0.8207305243246379
2457 0.6701872637241497 -0.5344131016122388 -0.35050737248893643
2495 0.041005258864007924 0.03186902188198088 -0.9828479155538503
3430 0.6576307428709701 -1.1167704324217795 -0.49098419759551293
2702 -0.8784790409231819 -1.4189874192737486 1.516956072405659
591 -0.6860456209209618 -0.7843403781492851 -0.7672612567774535
1911 -0.09961556344195616 -1.0695430758682085 -1.2888177727945305
972 -2.4276070284936275 0.3557292859102711 0.8168660851781672
2496 0.9810364153402777 0.48451447053111363 -0.3161520547087198
3661 1.281149898538824 -1.1943349430322885 0.8214946928312957
46 -0.8296687521448105 -1.6593292591206528 -2.5757309456569852
2354 -0.6530415174648553 1.4178390223439477 1.0423889457311297
3965 0.00383960891041344 0.18412113474513606 -2.1714188152175637
1972 0.49933540478083577 0.34816382321652695 -0.13038637285608423
3061 -0.7556903649716716 0.30847627712317766 -1.0167191801908142
968 -0.6730337370217266 0.041330343683909455 -1.2266299411632475
795 1.0915766140681715 0.08029334504986124 -1.5965597207579765
2063 0.1358367953656421 -0.23236580178553598 2.3671067896279854
2752 -0.45967800635315137 0.9505102490042663 -0.10039793858946904
393 0.667583769881323 -0.40269479581567036 0.1814748935538129
2962 -0.29521956933289994 -0.44755625339548877 -2.3044561508376016
109 0.9531769688906644 -0.32803211515275155 -1.350510321904146
115 -1.063629574254648 0.08683912703317948 0.6962731771048202
2153 -1.464591059958706 0.25682051305754333 1.2364134625059582
1316 1.5264935557524282 -0.08754202106883945 -0.023307668827665384
3245 -0.07109210381609464 0.6156926394342385 0.594172484402421
3873 1.797311990653317 -0.6716965167752917 0.8282027356285531
3678 -1.412677286532103 0.15971685163671212 -1.2682022630480019
1432 -0.23063648528922517 -1.4191427916354367 0.5436419700000492
1961 -0.24280069037021132 -0.44770561800042924 -0.39565562964499246
1547 1.6114142048498488 -0.2439630323636459 0.03991682727168391
1703 0.767078388079322 -1.946628978900053 0.3948477367799519
337 0.05681457177180744 -1.0657432693342073 -0.14936302502033794
1262 0.9847476933434519 0.6829967109443645 0.6808050721618887
2490 -0.019069213986166407 0.9934841072160588 -1.5111444506367826
3080 0.1899955568251586 0.499461106317032 -0.22691751229271734
2321 0.6383991383541259 1.72210124176998 -1.1101535095534065
2904 -2.171942093597467 1.8354934580431799 -0.9682742015212694
2312 -0.6408443607988269 -0.3757737945266055 -1.509093404395924
3250 2.092887389621608 0.8327083788096573 -0.29548572254142497
1219 1.5129006468591832 1.137228187638576 0.7587615001763722
2534 -1.7654432311368449 -0.30109403399148754 0.6302319148222262
1148 1.1029239863318305 1.0247158904926847 -0.5191727753790848
3043 0.20183717940698143 0.4821518451500052 0.33631324418765174
3048 0.9236286463905539 -0.5138926003332098 -0.05442807773429757
3622 -0.24104785021908623 -0.9919129462285297 0.3201331902346308
1435 -1.653947735337349 -1.70619813613142 -0.18907744998419693
763 -2.108518125862121 -0.12073771182248377 0.5339038485287549
1886 0.5310439007164864 0.306004105090256 0.41497138718968213
1232 0.46426198520791323 1.6841305398642428 -1.879134068272216
2541 -0.8799136451012219 0.8397792069127087 -1.2002427915331257
427 -0.19179929262615691 -0.46675664002972284 1.3137774306707306
1437 0.5467117972106142 1.9722636552570483 -0.71355708868109
2338 -0.6127563704818939 -1.564915704591391 0.00012047421977796759
1889 1.4076604908016526 -1.418290103002558 -0.2634236552386535
341 -0.1550873099454476 1.7514039141479605 0.03900233223408343
1359 -0.8737857853719116 0.3545768422232038 -0.8525738513989903
729 -0.08882479964510995 1.7259700164578171 0.07271193425762346
2313 -0.45000745412475995 -1.9272307610516848 1.7384353468270675
1826 -0.3677009365002428 -0.029448990982190348 1.5361515388576237
3811 -0.9656819756845989 0.5631680849761866 0.30138940501068856
3533 -0.5467439517128838 -0.6582863130333041 1.9491795303994486
1215 -1.3873560504211004 1.7381658282650578 1.2248530997692546
3099 0.07526821697600561 -0.6150482358601114 0.12711859977853485
1081 -0.4711364282092894 -0.5712857528544929 1.2861306549678808
144 -0.9664416746378316 0.3772177739750532 0.05542728670378189
3636 1.8913213519404337 -1.0505716079188767 0.8725408555317614
1588 -0.34587696620949215 0.776905361172748 -2.2577487916901444
1447 -0.5376484229499013 -0.6885365200544189 -0.7116419427198603
2409 1.2138074267546042 -0.1922984358051505 -0.4859787771286465
2504 1.5989911949980427 1.324335508910079 -1.2531109200658752
565 -1.1683771101895097 -1.5324757651643754 -0.05824181945633403
3187 1.4368000412208426 0.925517276078693 0.7518458235421043
1639 0.42240278338789017 0.14163192401345162 0.6312706067187729
3332 -0.8219397065342376 0.19611564454543132 1.3524261221210172
3911 -0.19785271313500466 1.4646344564476141 0.7853205090350845
3947 -0.4819552136451684 -0.08513610454660965 0.639680011872684
255 0.23926757371043422 -0.5904096450081177 -0.02516110919527878
987 -4.206848980734336 -0.04243762463661862 0.13160033647556327
3640 -2.323396195537631 0.30432606197387296 -0.38309834424217537
1792 0.13915539158352724 2.0136976898684487 -1.1777629034253214
604 0.7085546845060345 0.8228728324376623 -0.3467411945888619
1272 -1.0795568726186555 1.0252311583257026 0.6716201613049929
897 -0.8575076975996067 -1.3710763579188445 0.8468570582292243
3614 1.1149866217367597 -0.21433934367324153 -1.4323168480821424
1194 -0.48021701887613827 -0.8744348972620611 0.32537479835125005
796 -0.9822998882221867 -1.0491979586118843 1.4444560475741568
254 -0.15832404478279763 1.1779626199835722 -0.8672846354768261
608 0.5826308390282796 -0.19915728474343372 0.7556990736666149
275 -0.010022058333554509 -0.7367357705868669 -0.1383658804712716
1464 -0.43436399988602664 -0.0045970131484611805 0.24730419922956318
2210 0.16993578242996152 1.265684370690424 0.835931874637257
2296 -1.5715414255948408 -1.4311118041560706 -0.8040067372526971
1743 -2.236649689408337 0.31745033361912817 0.025092701108791464
319 0.5201522460810543 0.6894448113111952 1.0347197228535387
3118 1.368823756692289 -0.7795682912692503 0.07186553032066512
1015 0.9569276832933791 -0.10840996903759448 -0.02383609981727844
3424 -1.3061184628890534 -0.276998936882095 0.2063889704522377
3943 -0.836762387285273 -0.5502822296153622 -1.202014564409635
202 1.2589480399791229 0.1868843993532099 1.131518626353967
1158 0.8330848039181296 -0.6773833439083319 -0.07826980168502067
3057 0.27530117756470096 -0.08521287853582728 -1.2571682512256117
1105 -0.7834714909461165 0.23850081825062333 0.0565370550171986
1423 2.463080819132175 1.4764967028000162 -1.3901131200689827
606 0.8947187936503517 0.6344282731265702 -0.7326440991194543
1626 2.200995306274113 0.7173574526940799 1.2311451997819085
1593 1.1004168475484324 -0.5914179085918175 -1.6666584450048478
2057 -1.2706846012914998 -0.4330449053564288 1.0466222041999766
2533 -0.4189311195177519 1.732068538246773 0.801887579161484
3208 1.2064853163285758 1.7990605431596682 -0.14882834454328095
805 -0.6844693867527114 0.6588496473421094 -0.20406338755331266
1906 0.11447347028328059 -0.6478901777692612 1.0773338898263285
2592 1.6880259862812848 1.8027818430386764 -1.743460468487211
3259 -0.6000546622547229 -0.938288305032032 -0.5550709274370412
3998 0.7864200666688846 -1.830441565340072 1.0805448779462592
1416 -0.8122628304873727 1.4604110156981012 -1.2375600199328585
468 -0.43982109995495644 -1.417606931777181 1.491982265387981
2965 1.5843321152602146 0.03988726298768573 0.30868300241021457
105 -1.0814074085686347 0.9363833210833906 -0.4671074911562628
2023 1.53452092005146 0.45118565260751475 -0.16095543196849302
970 1.1143530571376195 -0.5135568583787141 -0.21831876288857566
3602 0.4493335075312761 -0.5866661014649642 -0.7507420477748005
2510 0.15542029174926775 2.1279068134516637 0.1525353420955328
3082 -0.2323787020066429 0.4225975590014528 -0.28023578904993335
621 -0.5194230413290091 0.2021235116986691 0.8605722787687747
2250 -0.31091419186170605 1.273977867196971 -0.935906732152008
1041 -0.34126902756581196 -0.3671522195319312 0.3824787415176215
1868 0.6811002172276466 -1.8507400618592391 -0.6936208545268067
1018 0.8997068812568422 0.27048630459742345 0.2249781348091713
3283 -0.5347685443946615 -0.3246739151047431 -0.41888100914553195
121 -0.44397493815901956 -0.5137755746313388 0.40542563015233557
3407 1.6126742949147983 1.6812289918890244 -0.35048457170110436
3321 2.8148182171698157 -0.9175762356105296 -0.11026206635873359
1729 0.49248753530175055 1.4252187283131441 0.4588796495545962
1557 -1.0657918476211674 -0.4507453866465286 0.3551855234685427
616 -1.57380228412211 0.6993361857938029 -0.9705077141851677
2106 1.9923936071604227 0.4215267746636723 -0.3884984200202296
490 -1.0918645201457395 1.2865408164213306 -0.4081023700783611
3496 -1.0023134109814624 -1.3469076764208237 -1.4090604492347694
2856 0.4542836301816234 -0.10742535597775289 1.3656642568520325
1683 -0.760350491464172 -0.749716827503311 0.07671573647584147
2804 0.3786809714244624 -0.11234668207965401 0.5383274335276165
2577 0.8548510671508117 -0.5433338011402318 -2.573479562529706
1237 1.400750401131426 -0.9017058823956573 -0.1846130905658343
3157 -0.0735335999878446 0.4012273156952024 0.6676035406407852
3215 -1.5080331962974796 1.0822792071794032 1.0475889440256039
2532 0.08382839173827243 2.4546855978417264 -0.43828593622845113
489 -1.1755920711794188 -0.19053872364085234 -0.2934948915074408
2640 0.1663881201096162 -0.18642899291333087 2.6298941870909545
2910 -0.7423011053505253 -1.3398866037252521 0.07790286087900063
2217 1.5850682880578149 1.062207947214994 -0.9444734016984272
2894 0.21225968378175697 -0.6299493640602788 0.18268837124745402
78 -0.9874448679587905 -0.020587320461606506 0.7320635668270673
3384 0.07231775233861329 0.09755951281347866 -1.9317187218157792
973 -0.49487258538704093 0.1584666602975869 0.6779890636287249
3990 -1.9165030675509351 -0.0615042700635661 -0.8869795011455052
125 -0.24834317973647935 1.4906995267765035 -0.6639109952707662
1752 0.1324087798389492 1.5921966179830016 -1.4338777997969363
1009 -1.4606263133097823 -0.5641820222022493 -0.0020179121393900856
1998 0.5340733743621766 -0.993591926221761 1.5023101331066464
1536 0.5600976427232677 -1.2295587387016682 -0.6266928109623727
3367 0.33662846789631845 -0.141011620961621 0.055774197466687915
2334 -0.2378068095058681 -0.4746199872892709 -0.2086076257598927
634 -1.141431347823115 0.9027514984925197 -0.6212538504766033
2524 -0.06798878863160251 1.2420450541527839 -1.2871438130571258
3416 0.5687701783981541 0.10927863871444533 -0.21034611216555155
3600 -0.4024213446418163 0.22350245475572525 -0.5172299804163247
1567 0.6133539757003218 0.8749046376648288 -0.7083368519902553
1369 0.02113409315167173 1.4830052256531057 0.8083559011261826
3164 -1.4666578364758889 -2.015899638936686 0.1849320230759577
2421 0.17818473972829182 0.18961480712499665 -0.08477634945043297
3951 0.335200718053533 0.7225318533904153 -0.3566300221949105
2873 -0.6451425152499537 0.43864017164801483 -0.5156768047243145
2737 -0.0748479065144436 1.133608595758145 0.92875877518207
974 -0.8956092087430443 0.3233915284507441 -0.8165655265081261
3767 -0.3157809428936783 0.9997954927411833 0.25071130692861204
3180 -2.062356753551885 0.7843271340051629 -0.18261365927050485
120 -0.5378820680923473 0.4917918410814962 0.6529921109800711
887 -0.02667978416561154 1.4904056910652528 -0.2362768802213689
3605 -1.4078467900288945 0.89670130894282 -0.4772399906345175
3362 -0.7055608885761564 -0.4223676221907435 1.2714764096400806
2276 -0.08206590624327616 -0.48516700086718145 -2.4341613164894715
3452 -1.8250771321221713 1.5167848853475892 1.1258089730224081
2309 -0.6993971918666497 2.3905279647524544 0.6050735322299613
1915 -0.1056134320610634 -0.31717628335373727 2.060825371204734
3124 -0.04262280088132875 0.2553421670329713 1.4343434546958322
1948 0.38770965207783326 -0.25353707999044506 -2.2679854189204103
2616 -1.1747002160863518 0.27701229199627947 -0.46140308378224343
24 -0.24399824608618148 0.2734545553050827 -0.45646812044471663
610 0.8494236484643 0.10551576266140644 -0.07571691924190461
2623 0.3222801373884847 1.1101979006999643 0.7250014524506614
3323 -0.7442332065723439 1.041618084653978 -1.205373165190484
3096 -0.9033001191824536 0.15019195405783772 -0.7195500581676996
1917 0.6287620998046876 1.2578106069260713 -1.0751675812567456
3696 -0.6645571513420672 -0.08546083001549981 -0.2542183167774117
2877 -0.9957926654039968 0.040218156560252835 0.5954758075684624
1549 1.5390196462898011 -0.8392952150051145 1.9870237359918002
3139 -0.9062069034685261 1.3853548014847508 1.112330424472215
2505 -1.0106565944486887 2.1077544275159803 0.45821927308395244
2444 -2.008059271731498 -0.3632201959659178 -1.0924691017285275
1333 0.0919816530599726 0.16098529535696998 0.09807829357331546
438 1.0433857603487384 -1.3100400060085993 0.6203704889059031
2175 -0.9811504704925164 -1.1639360602253883 -0.6530094028096909
2905 -0.5098412331505382 -0.03481570303540489 -1.2867026667076749
2807 0.9760020872681385 -0.8563033295138094 0.5252209891679426
3255 1.1683750957428964 1.4463146591086926 0.18647300508425205
444 -0.5051368636625335 0.027763903803571424 -0.8424144463921778
2295 -1.0222527517662938 3.297902187114961 -1.2566363633890012
1990 -0.3574419152691515 -1.7884561178262262 0.5680743802963124
682 -2.0506144857883597 -0.5279983489354202 2.604475619783757
1275 -0.041571245771249425 0.07691407927311371 -1.0120851344357702
3162 -0.5846048671287666 0.4721052344033298 1.3571171009353882
1458 0.6574730622604229 -0.883538723994205 1.4452404054433117
2942 -0.01911214884882699 -0.7956375189872303 0.7148145466510658
2579 2.5506257268525436 0.4236914874776407 0.7735057028449828
911 -0.7978616305134961 -0.9390647156772359 -0.15080253859110204
2790 0.3912364202754031 0.55560369360645 0.24995413557660687
638 -0.8785792648460753 -0.6446051990203591 0.09204272416398998
835 -0.591298206509994 -0.43617831138714863 -1.0635722950767865
921 0.135695319689654 -1.7399781195853614 -0.08172251820866375
1772 0.44447346269358035 -0.8911722664272184 -0.8474379069685625
2367 -0.7036519945917208 -0.6803602648571742 -0.5966707690919111
642 -0.7743419173093332 -0.6656137112229171 1.7486497653385642
332 -0.7121630722686035 -1.8486208482175348 -1.4410973751477332
2426 1.7813719907670786 -1.0574357310527398 0.28940840876640955
2823 0.7809403070446873 0.4200954422117493 -1.396395523609926
138 2.1413615815211657 -0.26072492093992994 -0.9347993008107914
2104 -1.1337634544029798 -1.765469353100997 0.3462454803805565
3910 -0.39738821823617965 0.5806364359501625 0.024555386513829564
1131 -0.0829129367475853 -0.5910124024523642 -1.082717337766082
967 0.03244211025554669 -0.5147165177668162 1.1374726994734952
2502 -0.3206641943622904 -0.44004980130130483 -0.41217014953864395
894 1.004186480948844 -0.9051165603579799 0.8893850726035525
2470 0.9961194426330566 -0.23207936050412234 0.12054992395484124
1535 0.046942410809305606 -0.11323340017613893 -0.5185199346244087
2707 -1.2821250097587755 0.39841650808411927 2.866469771363667
2787 -0.5042716881203693 1.1536962582553656 0.7119963569955743
3627 -0.29013142325985924 0.9750004068898374 -0.5686786271006137
3010 0.4427790408566559 -0.5553496593531007 -0.32030028832520335
2474 -0.7732861183958808 0.4552647313719479 -0.20763200897134537
1289 -0.5647812272486995 -0.9887708796425216 -0.7935609078621237
3420 -0.9296831645097333 0.18029722861556904 1.2639065893652102
1174 -0.42960174180015037 0.6719090823011156 -0.9301424072419301
3103 2.389408097542348 0.28849017012973954 0.9643875857912978
1866 0.5191766672176069 -0.3634895110836256 1.315318777829906
3685 -0.20911228584275654 -0.1867608647928592 0.009165079482932643
2519 0.6674739610617254 0.6683638834579071 0.31282215414154624
2591 -1.2676369692824956 0.8733068683695295 1.1585984033208212
2112 0.18343662840301359 1.081638309628531 -0.8675504666912511
3486 0.26504116278131257 0.3589841289789478 1.4634954863105327
2072 -0.765356097026697 -0.07498086663628628 -0.19874103206696908
1446 0.6685550096196597 0.04156815511571795 -0.19819711882080498
2246 -0.22926660389924475 0.2841454420185579 -0.6019419868917905
1279 -1.0913044743613414 -1.5987198339857762 -1.4233715856115927
3065 0.3578925266401992 -0.5693200636306097 0.4806314930326184
234 0.7443373851182126 -0.72996791258253 -0.011183423174254189
930 2.1086811960082783 -1.3639775514471306 -0.7394485308649404
3918 -1.8176659628239804 1.314044827343393 -1.1505573755514278
3488 0.11662666263509612 -0.9378821253517522 0.8410058640799559
2521 2.0594012537166604 -2.5442209515134153 -0.01947821730269051
1787 -0.9828165820208633 0.9093930046436405 1.992320615618473
1661 -0.19184690697049575 0.8787936361341321 1.2591653872923703
753 1.4829335103626597 0.16314739653175853 -1.0932371360247792
3052 1.107947360239458 -0.8578096563262861 1.7169553098268662
1776 -2.630558494107252 1.939305272377166 -1.9468197381112706
1024 -0.3588304965262221 -1.1113513470069103 1.883161968223656
690 -0.3943211975064445 0.19297018458906873 -1.0420797951525549
3565 1.2417776248570669 1.7044330668256025 1.225512543693297
3697 0.7379324595120161 2.1928682735007756 0.02964835285616151
509 1.693660920525357 0.5825156685291376 -1.1191350168320233
3144 0.8647357805272574 -0.8698843516124812 -1.404950692411597
1161 0.3707318181918983 0.6279558321865424 -0.6636159791218051
1681 -0.4401115176144518 -0.6682008475569982 -0.569477400792967
380 -0.5410182745266379 2.162607137730218 0.4886443052019786
80 0.08949054092560438 -0.36745455157336965 0.1684179156641439
484 0.25505430501237214 -0.5294093373566886 -1.0751869539411896
877 0.6251127706768328 0.4871102840888545 -1.5611210533629467
832 -1.8236893850531077 -0.3951081247149622 0.7874917708976487
1728 0.3742264993327759 0.07683095019766152 1.8901861983583246
258 -0.6486800263865299 -0.2498455763447914 -0.11261247789552993
2540 -0.08681038224284233 1.1359183568094005 -0.8216097876001801
1621 -0.3616458380304304 -0.12558880442198017 -0.06208890451393559
2729 -0.845266445990776 1.480681168084519 2.1247418183952367
2448 -0.6658171063568159 -1.084557878251522 -0.8254958531535189
1899 0.05127885377879327 -0.07977308542243378 0.9389756152914505
256 -0.8024614412832562 1.4571331293569771 1.1898988591256137
1471 1.754874273129807 0.4359691695034564 -1.5975196372723899
1559 0.44472333908169664 -0.5154828543487523 -0.963721255878869
3879 -0.9702616483120757 0.8423949522385011 -0.3305957914295395
2355 0.48621051307275615 0.3585579061417286 -0.7876065253273481
3282 0.15207196020541364 -0.23455671065608333 1.1756738158925317
2086 1.6143838822480008 -0.8576397156917737 0.7093248853649137
1136 0.3326626752740902 0.005646216945641136 -1.3369669904736803
855 -0.3182432809106808 -0.1396998383786795 0.6818111563133363
2133 -0.8705963180231769 -0.012079166386384687 0.24538405128170795
3388 0.9150962117607339 0.041900706925053384 -0.359664497104862
2986 1.8727130050701817 1.3282577690602866 0.17863500061966134
1 -0.2572342482272513 -0.35561535283043966 0.04304408283389424
1809 -0.30916300691977344 -0.45452562676900404 0.03559102717899004
704 0.5057051948907325 -0.2521812357552998 0.34621343737993704
944 -0.11863193427834973 0.8384339142651688 0.523112789251728
2578 -0.2585562903878722 -0.936315306268045 -0.09292523619120265
3431 0.5378954495917888 0.6668790327904991 1.889947662084305
1111 -1.3874007818307945 1.0066378984303987 0.5702227833650598
76 2.1607071276208534 -0.6866340640448225 -0.967022381748947
3288 2.149304223639582 -1.2020571082164648 0.4987050694563029
2339 -1.1178452377033004 -2.3119706837937968 0.8138354809364204
2929 -1.1680411986425265 0.7088653107388749 1.1244678013414566
3399 1.033105293855814 0.8567509697508331 2.255062227407781
1184 -0.09183146046277307 -0.038809639045825 -0.4834503150503253
544 0.5113270582839783 0.701955169147957 -1.0742185739620274
3575 -0.40719041451881866 -0.39097093455808773 -0.49052241067882535
1754 -1.161276616103647 -0.47658306419647845 -1.246837506339622
27 0.6739361110204615 -0.2139266259922038 -0.6023159717765492
2497 0.8105019702069738 -1.6140450102353965 1.1849484907048575
1500 0.12404874061122684 0.26215194227836464 -1.107601692466282
827 -0.3742308095732366 0.5854434639283926 1.0937819614419073
1711 0.1948193838303062 -0.2323517382743533 -0.9745082839642131
2349 -0.5587459884527803 0.616447397314157 0.34770444355967206
1975 0.5138100471332235 -0.04886398917872255 1.1027995279235117
3050 0.1548567631236809 -0.9939399716092794 0.8909740602199909
2165 1.3898021071542268 -0.5859378426149349 -0.45019462439240976
2788 2.2830860590596953 -0.5229255751666179 1.643422027868474
654 -1.335257105358256 1.0390184839612626 0.19934384028913116
309 0.8900113823937854 -0.5527858810338342 -1.6525908572552848
3230 -0.2773078695674465 -1.3139544685259112 -0.012105066550699815
2066 -2.4589245929104266 -1.8145079791309606 -0.11132438692944281
471 0.82237263025162 0.895405645222038 0.37697760794816026
1753 1.7485362591968485 -0.6895483786486959 -1.2318294205631106
1300 0.13115126516850334 -1.1278581310572104 1.1719075697069914
1522 -0.7803295838519192 -0.17987856147565776 -0.6711799852661724
1173 -0.6922647720137567 -0.20811762010335 0.12472337804566114
3723 -0.08118321924790571 -0.7641122121856679 -0.267500792724833
1407 1.8037077238715202 0.6168487327193898 -0.006879242382055215
2638 -0.1876805274882192 -0.923481010203481 -0.9106097417958569
1488 -1.1676129367570944 1.0609571654708945 0.6153346973613587
619 -0.6235767011954916 -0.47015002944268364 0.30252133765576444
3870 -0.049214178366888246 -0.8373201996328834 -1.0733861136408316
3051 -1.681188704863839 0.9879726730832974 0.000751414099053022
87 1.4789700659608929 -0.7094632927478606 -1.0131095849908431
3963 0.8208543361789151 -0.5533476218186084 -1.4225622093116579
3902 -0.7697320536903736 0.09818456598549014 -1.49488504046374
2266 -0.06700903880706324 -1.1737340971912884 -0.26185482043254027
3643 0.6165398455006337 0.5159234519538692 -0.22967514084134005
501 -1.523882583681786 0.4806691361929766 0.4258197801423087
808 0.7385332198621378 -0.36488870586422695 0.09120685901402609
259 -0.39460108778703723 0.10731170888968805 -1.1997969493958687
1940 0.3428436165798573 0.07524561638573433 -0.41883127168514406
652 0.9587569548137305 -1.27845159354742 0.9760148893922439
98 1.1326035742257852 0.9983104469648778 0.7069783343140261
58 0.6718774185226405 -0.22982445610212324 -1.2412171386054685
1544 -1.2457115196063129 -1.3705271193644502 -0.757858010784544
3716 0.00898159938247423 0.6594191576191688 0.13166630056644898
792 0.8170184417563277 0.07981386894028508 0.271248440411878
519 1.2789025306963286 -0.8374511148592899 -0.4242896771433358
1584 2.1171324540731846 -1.5104022863034028 0.2800320245529875
3827 -0.7269351885343994 1.1795804219253916 1.7624058485632488
3517 -0.932697827738134 0.40118077664018054 1.2010556177491851
2784 0.7485162349942083 0.6199356779432152 -0.6629981039526538
1527 -0.6699031519829738 -1.0339027444716355 0.6246585490712859
1892 -0.19940370411175298 0.8794255435199428 2.435616469229903
2824 3.2057317984975824 2.1372626419855862 -0.12949327714537226
3035 -0.5430693625277413 1.486346593296212 -0.34650408389966286
1164 1.5338652532411647 0.4774233560496954 -1.5862857145440905
2428 0.03808126159863594 1.5748382297393317 -1.7582313431180736
3887 -1.1338293130109858 -0.03447602178408062 0.4864315707518949
2651 -0.3963833781270987 0.705544930309266 -1.1851939356979522
3710 -0.1662158082137213 0.8385271330225128 -2.2369241206466492
716 0.46333106828156095 -0.931044294008524 0.9706022776242481
3303 -0.653493394990683 -1.194703870058635 1.1469752960141926
296 -2.1932996991444007 -0.533936626673355 0.42498407062179155
1101 0.3881044455090928 -0.7850518289123622 -0.2782411122595415
1371 -1.3237192865303036 -0.6684597750510888 -0.6425455650744296
1406 1.2558679918428894 0.021420629609280095 -0.9755895243467904
2348 -0.0007757370844294849 0.16022431069177204 -0.7939308348509814
3766 -0.1092843215063547 1.9796936037088655 -0.10525507901161074
168 -1.4116006131672127 -0.7733784022745345 -1.332989333392641
2715 1.1322785583545325 -0.06792311725790195 0.04307592730285655
2832 -1.591131085304553 1.005721161314389 1.3083825527712107
3502 0.33896125887820033 -1.2940448819182473 1.2376402677272638
3700 -0.818122769579795 0.5128344978425183 0.6390989880169293
1701 1.4867104549056136 2.209080672506723 0.9169558824216145
1047 0.6253691061702856 -2.162222699954649 0.9540086771035832
1092 2.37028663267717 -1.2916287393965493 -0.4483836842286687
2858 -0.9942869833734526 -0.026667344346941055 0.04968499471927946
530 -0.7032339481471229 0.985517741006154 0.783372249696217
371 0.6762956229426798 0.05748256577568062 0.3997673824072867
891 -0.49446839006908794 -0.8847480631197877 -1.0804604577306194
1574 0.48621612898832206 -0.11909104830839062 0.675100607446232
1945 0.2581199680338027 0.8387355363307257 0.7949074677294432
2935 -0.36570113904451795 -0.07498079520511618 -1.4874891531238579
856 0.6620163281883724 -1.512598272751035 0.12926553424056517
493 1.5657166008931374 -0.8570156582776701 0.023700387047301166
998 -0.23298216909270308 0.5816598719910686 0.1083175500029473
771 0.16568018208799168 0.7085355384336391 -0.9337428405404087
2096 -0.29450829987333216 0.06991849420211127 2.0669349873185783
969 0.5325015884691503 1.134050612827295 -0.24468062438392163
238 2.1607711778788854 -0.2929052216533825 2.224602065651436
2731 0.14979613872452582 -0.8435758864842147 0.6460512141074674
3239 -1.333326744362807 -2.3967535260643875 1.3558403634380918
2064 1.0560072002213343 1.1776750437896766 -0.15329853997677625
1230 0.37175490973225106 -0.790870648712451 0.3035608325960129
761 -0.1511278535783863 -2.4090739372199805 0.6635856743168081
2563 0.2608790003711301 -1.1190396836451797 -1.8657364424263234
83 0.1309484087308351 -0.0008763216905874133 0.3807816378612141
3227 1.0785170326772824 1.1321281164760462 -0.007997373950203049
420 -0.16177848012793444 0.6258410710190122 -0.6055044857274166
2170 -1.0080984850269559 -1.0324403419032184 1.4173734590418392
3504 -1.1824356435851135 0.6750370563401664 -0.6277544828844188
1555 0.16997299807776345 -0.9361537218708001 1.638729832735863
1352 0.1500183733867615 0.9721982724989281 0.6610905920315593
3956 -1.8388302931232592 -0.5395380101165382 1.4836118046482714
1014 0.1262878870571854 1.988823386153194 0.47033526437506
269 0.4597241025958429 -0.5558285739423623 -0.33008691202829515
1777 -0.09296047621961952 0.6704474938415635 -0.8358380692041253
1274 1.706092824757148 -0.24606839157471033 2.184383709592157
620 1.09127049817768 -0.39668409411449285 1.394069656018642
3735 1.891622264784853 1.0676366106241901 0.18854935569691936
2082 0.38859982067232524 1.5931584369386818 0.10975687028028684
2324 0.3289101134049705 0.202725102234337 1.152079754916232
496 -1.2252295046559318 -1.9867899934525675 0.1098144977212622
3824 -0.7703200636721261 1.4223193320848655 0.427435288731788
3022 -0.9002545199896396 -0.7180752808805047 -0.33213273192029014
1242 -0.14371751800345176 -0.5423280956121673 1.3563183560337564
2706 -0.49654581715278673 1.385132623113947 -0.3741831225010228
687 0.6773958280532695 -0.4418293597752656 1.7327929883981021
3802 -0.5714997854949295 -1.1230536934720963 0.6561619943230268
1756 0.2738661143565894 1.0514156381645885 -1.2040483015055317
3281 -0.8434360727429899 1.2364214310111177 0.9460750577392573
3615 0.17876320895040126 0.12183375331731673 -0.5327697196308877
1712 -0.4092690216151432 -1.2594075777867602 0.9666057337663395
3018 -1.5519910336630325 1.0770265043646923 0.8847780168103329
3628 0.6732840083683536 -1.3840820780374004 -0.2857033609677189
2550 -0.11827486622556874 -0.4487977723869393 0.19733381419184132
3801 -1.0628161342117013 -1.464620073036091 -1.2748303360276452
3177 -0.7986792451081373 -0.3019719589250471 0.5128006856211562
2643 0.1763640561084855 0.27441636449876317 0.42417030822236135
3594 -1.072074392334941 -0.09294397608499688 0.07853180498510383
611 1.006663591241614 -0.17127140151291806 0.8510501488848333
1288 -1.2075534372470074 -0.2534333736314419 -2.0449946578150784
2968 -0.7827674165021549 0.7327957478963213 -0.9044333339006714
1563 0.9320745944580459 1.210352554075468 0.23774095788533403
1155 1.4450042426809224 0.17579795440944337 1.3890230379040707
456 -2.518667684991441 -0.9290967639376663 -1.5994523342726936
3896 1.1479467257653508 0.11867408433629313 -0.7255788078558731
1897 1.0066927679847755 -0.38188087161957596 0.7629667687142949
1027 -0.5685810271909583 1.2688513006705893 -1.371914250259347
1891 0.07968275863485619 1.2128436077107596 -0.5773001823764604
2350 0.4118777262479641 -1.0803085408162534 -0.43169732082180884
879 0.7618898977432315 -0.4338795580803368 0.21548430247142109
3721 -1.589621563552857 -0.0798962088577503 -0.15291267174419387
2859 1.1037930865387777 -0.33200898381180954 -0.55191591699753
3121 0.6794814296064581 0.543068451287168 0.062450452966896185
2134 -1.425249452884031 -0.29537994197728146 -0.6298517917360501
2054 -0.007730885401065515 1.0725959307940993 -2.047675028353206
2483 -1.1979687957463168 0.6731323870172384 -0.055397275607414226
1810 0.4425954599066218 -1.5125682998107899 1.2420192100371057
2337 0.05679533124669783 -1.100911616170233 1.324837002130345
1916 -1.0423543803754576 -1.3504775453395677 -0.15009965839834216
2308 1.1066268834408903 1.1463408247112454 1.319584207667278
352 -0.593204780843032 0.10423914845427498 -0.41710651393077647
2163 0.8317603846269781 0.6429106734749135 -1.6573054239387168
1794 0.42835769082200065 0.3001291470029475 -1.0150844527734302
2487 0.770773391830843 -0.682788644154173 1.1921848037494787
2660 -1.008003505410971 -0.026164933402616945 -1.2893295055181346
1421 -1.3430358182264175 -0.5276899927206286 0.8303295502245476
2055 -0.6481782699981056 -0.5680840545300849 -0.24852505562853802
33 -0.2247119452427147 -0.3935065957414675 -0.49357900549257755
2171 -0.18641593158024597 0.16781524601936465 1.574077587573157
630 1.070548338794157 -1.9065079408770191 0.05064220693576355
3291 -0.24266861614288568 1.6279629819195187 -0.032950745057876714
2741 -0.7387214532795948 0.2601055859897061 1.1401123924814571
3606 -1.239106715266699 0.1271637873461069 -2.4458597282979
2589 0.5865298332414002 -0.7727815087686013 0.6708345639843704
2060 0.4981148732586379 0.23301545079623473 0.22447164104375705
455 0.22072134564887352 -0.23092854382657682 0.5046383077366162
3150 0.5497545497482376 -0.2927352700985825 1.1456041086480646
2602 -0.1264748206111713 -0.28982989808783916 0.9848040085565944
2286 2.1982904624277877 0.5074917217547683 0.18078207155387216
2381 -0.08474504276991054 1.0244168730994874 -0.5754227509104904
2659 0.49116851761761837 -1.256504775552362 0.9267197931677164
893 -0.7074175851377248 -0.28046276023149785 -1.972447332060494
2363 0.33357691589341126 -0.4453127593035853 -0.19030168901740568
1553 0.22910804709837732 0.28342622234522524 -0.9121413314336726
542 0.49157581849990056 0.5526560138213262 0.2890838934131362
2027 -1.134774909076959 -0.955304539682395 0.12599735342009036
3719 -0.04874499419926049 -0.2645970377446789 -0.32267119282992907
553 -0.5949196804421759 0.508448973321005 -0.5898473278063772
3145 1.1977839719935597 -0.6532262817346675 -0.5330405935941172
233 1.2405146110407537 0.6345776304068858 1.4418982159925016
2015 0.7962788553393567 1.0778236418576181 -1.250308268538195
2569 -1.7585456690287822 0.1032293863244864 -0.3998264019971168
2543 -0.2595437899480495 1.9027772114046306 -0.45173549079632697
2501 -0.4079044862744494 1.369898156474943 0.24220137182885493
3973 0.2733906821306084 0.6467197551907223 -1.6466832328250736
3205 0.4756519966938313 -0.22237100047132197 1.38567544348709
71 0.920942165690379 -0.15111029491444317 0.06631684848380229
2786 0.29344879210581926 0.5379712560778842 -0.5107477823908751
938 0.8416983645413305 1.3443928594370564 0.4713924373120789
3828 2.154288105449293 0.8318801201852716 -0.031173591406889377
1325 -0.22792078300784935 -0.8284069692441319 -1.4967357081371448
3432 1.0205097519135764 0.06687957820308245 0.21981269953582064
1343 1.8041750394411349 0.168101663047223 -0.7625602407316427
2392 1.54485538906649 0.8989474994913036 0.9519136358590548
566 0.18048478363559914 -1.0527651687350756 0.20018794776013568
3868 -0.2773211470958779 -0.694333144761556 -1.2181191175796544
3273 0.5499721099833262 -1.0723526711168725 0.14045650192006465
2014 0.5478894223182232 0.29610311704244335 1.2745424309070734
3132 0.3872636298054483 -0.5790430899971911 0.45152756679499845
1361 0.08750774721387762 -1.4818414362827252 -0.9004695754230705
3945 -1.9435659588587353 1.4103492882485846 -0.9914882358863668
3608 0.20640712098151964 -0.7494050132732952 0.5387366657951584
93 1.2361808011501443 1.0619627797064373 0.5227398248815481
592 -0.33675662987664223 -1.2273906264497416 -0.6716374554381408
920 -0.4322919922994435 -0.0959999344366439 0.518744759834544
2700 1.4099337409194412 2.3612373169654965 0.15737099277808894
1610 1.4918780925252544 -2.6522595112106475 -0.04575299171840732
2574 -0.00024659892802512045 0.18528788020943313 3.0087610579379147
139 0.7450567040225892 0.43198435366404714 -0.6429761627814112
294 1.5503642648765905 -0.7902066487277188 -2.2183973537457766
3772 2.116938050932836 0.4777658059912315 0.4084521378886855
2837 -0.7620934498913297 -0.9453032499471874 -1.2421901247770433
3092 -0.8578354369908758 0.6937644482131613 -0.7566043816253855
336 0.6069375252917519 1.6845852182246406 -1.0284547024060946
2789 0.45434009486943955 -1.3987629401195876 1.4239859949755094
451 1.0459351896992042 0.7612084888490602 0.7477849353782975
3172 1.883580819539949 -1.4224696036785456 -1.2336595085128992
1449 -2.267877134692488 0.983516641459698 1.6932780395915275
2010 -0.8290461265660614 0.43443176781063986 -0.07036480102582485
594 0.4407199309740105 -0.5914869513237319 -1.9949747847187052
2852 -0.7604529261600224 -0.31521411403468463 -1.6840723623331828
1255 -0.16981872829409722 1.787378032356559 1.2205751219356715
3530 -0.26323677372804793 0.26104986552964277 -0.035754270905754275
3491 -0.8249663287449206 1.2735178728195427 -0.7090724930816872
402 0.24093740592801619 0.6617879419818093 0.7115961575331295
1708 2.0621093019186083 1.666784618953583 -0.6155159384986109
3807 0.8297366567750524 -0.08837681160819603 -1.5907628845918476
2598 -0.5136876198907444 0.5039415969876082 0.8093764142451646
230 1.1368121016271724 -1.9178689819467576 0.18497650330133567
29 0.021589324864194605 0.8154999380160746 -0.2570741996945732
1763 0.9321771081012148 -0.744294862750459 1.028211227589409
1295 0.406348246592547 0.02480462707084367 -0.459447913129819
3620 0.13068487026896952 -0.990132801439194 0.08612897416532311
2755 -1.3753979759214976 0.4816901982436377 0.14628293427564376
791 -0.938973432762261 0.6940155919015341 0.20079672840519863
344 1.106153900590621 0.4956071535629255 -0.32320633443504804
1277 0.40703659815054993 1.1067384383929042 -0.012216584665034651
65 0.5161593517186919 -0.5072812777735466 0.658584329966061
130 -1.6938313578443476 -0.16993814086548353 -0.22304976272520674
2645 -0.050430093879464136 -0.13884255912521862 1.0811182840419877
3023 -0.5167899131551745 -1.3759035757428706 1.3043723432241487
1050 -0.279863309029307 -2.7296450637592873 1.667095298535697
1465 0.306165614973027 -1.3484675111983737 -1.2650927937091074
2705 -0.6329230110035962 0.8868800289080824 0.7512737188902002
216 1.371021603499101 -0.2893380791449911 0.22494434041447559
1086 -0.18743531790877213 -1.2313716425577987 -0.7983607318667423
1616 1.0101745887552396 0.2682674982811496 1.0053650866007622
147 1.0309912247429625 -0.037812247134734404 -1.3924109313408481
904 -0.14331777966206283 1.1923229626395173 -0.686997930555397
991 0.45830472290333374 0.3469631535141728 -0.8997546894187345
1201 1.4038333311799802 0.7016338463503892 1.5614761640233212
2699 -1.2903654738141923 0.4005544065146414 -0.3653889624402832
2809 -0.09342313212024071 0.9671132308109942 0.3708753158737984
390 -0.3405810861305242 1.6686819804914015 -2.0112447392001203
609 -0.23119592659171212 1.1754060208423394 1.5363384108164118
655 -0.3170243061315007 0.09861193462834753 0.9640669841897676
3320 -0.1709646555056374 -0.6995226849323939 -0.21998473963933518
257 1.0979495076111068 -0.22786814739312233 -2.0572888425161087
1647 -0.19990400240472306 1.0813358509745992 -0.999103886805657
3813 0.09252437927749868 -0.17202251671951224 0.16757583333390463
72 -0.4756699669310189 1.4074213691634583 -1.5592774519470716
824 -0.8402084371443023 -0.4742848415315632 -2.0131583988930384
886 -0.6064018793363545 0.41585468435662865 0.9461219974847385
118 -0.89357394744113 1.0009956712701042 0.5394020188302848
3242 -0.06712901459344034 -0.34344481850239456 -1.295014451115893
1389 -0.5994564477544424 0.5034168619195408 -0.55798899601118
412 -1.3356694518367442 0.3756273981524812 0.19081302808181116
724 -0.4850842558554328 0.15179223221468274 0.2718380054851184
2076 1.3558865842629866 0.1246061049582375 -0.10906654892007293
1089 -1.1030535995873585 0.033717512251321406 0.5672676434920244
1484 -1.3810266508491285 -1.1996623397917294 0.4914970448081836
195 -0.5112482072217165 0.23159916908611766 -1.0654604445629814
3417 -1.4704678817248873 -1.2230150844701084 -0.003151128627418961
3991 -0.02420194636056836 0.4141436443883708 1.0609622105319552
3149 1.2252146819106042 -0.7611682927399087 -3.0901215313631893
546 1.12996467724497 0.0947597305013255 1.0849728102809817
2026 -0.9179559878744726 0.5301691099354697 -0.9720113385530714
1351 -1.2067364558917573 -1.3958423593648805 -0.6611200863096791
1134 1.5368329355781325 -0.6437628897795811 -0.1400338172706981
510 -0.08474571087637521 -0.8818170503693536 0.39270812217448914
613 -1.9082379876634303 -0.9881446252920559 -0.4469741207148919
1258 -0.9379764505533507 -0.1234598876089384 0.8175434501981242
353 0.8816335994761492 -0.8200227767944059 1.516718896623531
748 -1.2487943404220947 0.5742920098804561 -0.8460642362183719
2202 0.9798908403050345 1.6447294783288822 0.38062313264164754
22 -0.248691286564737 -1.8329582468344467 0.6109005483355634
1370 0.049613825195445674 1.408054724852551 0.6522853921743385
721 -0.1401667234961785 -0.13188999394076556 -0.8986490602135021
3154 0.41089704530010446 0.48614516174133593 -0.6725170477881768
3707 -1.32680846260506 -0.37030289398432115 1.7624572485174843
2373 -0.4617254732364769 -0.8094280269326826 -1.5459909679014316
1912 -1.135405214800922 -0.11516273384481669 1.51528299629937
1988 0.44745133896173234 -0.7873076013012809 2.2984623899462617
1426 -0.533753382669671 -0.02296957552177044 -0.11749102231640016
876 0.5136157497693011 -0.18585684638382496 -1.4275364804462898
104 0.053118053955150416 -0.09417152429052125 -0.41773534496782444
2839 0.2770492132201421 -1.471886206339537 0.29539677065433123
3046 -0.6153671547939791 -0.04176738126980535 -0.2591348154871021
3441 0.12305866258602023 -1.3132715010011193 -1.9391528539231169
2382 -0.45246550119511114 -0.17264528286014164 -0.6742243790606064
2634 0.008472708791063807 -0.8729031106942553 -1.1842512337585434
1290 -0.06987696164930479 -1.075307177980277 -0.48523827238238826
1167 1.8697618055841188 0.058504177195621614 -0.9829004232823699
936 0.017099304033958384 0.7536828101585777 -1.085023905985366
1394 -1.3851283191055472 -1.6444722159249905 -0.5667699518605633
3319 0.5227523542817026 0.25631907105617047 0.4549583552692631
2775 0.7964275694328783 0.08454143940089574 0.15098386537911365
2398 0.41212052999360443 -1.667574994650625 1.5026688473730587
3325 0.006518908939110905 -1.427511713675966 0.3651098587101244
2906 -0.14310325347531078 0.7983445746639317 -0.009799147883245277
423 0.3009756598921455 -0.08663370858109984 -0.48507032221622043
1959 -1.9120640692016526 0.49264436856156923 -0.6176151449027963
3026 1.2778950120629324 0.44743430088650205 -1.1150409816766071
194 -1.3226424063072486 -1.383313771168552 -0.6259596360814428
95 0.2999578131427645 0.6115704116476669 -0.32942013278956456
2174 -0.25328967306788397 -2.019483957353772 1.033605931250978
222 0.6402685967787957 -0.24541433187971906 0.9810444918468
1287 0.42545056715069696 0.12745206067121173 -0.4054100970786061
3389 0.9091279597412542 1.1590128905297934 -0.42572376124506317
2593 -0.6043367256278281 -1.698731921154265 0.07351121367896024
2564 -0.4975469388370767 1.1916968107519514 1.7952956988516011
2794 -0.3160708287986318 1.7193430483818992 0.7309350212989786
2289 0.2446743553901953 1.0822297169457815 -0.6666732804653456
169 -1.0270214541045324 -0.6267011828929349 -0.4789438071765072
39 -1.2040075832317965 0.13162998660504652 -0.2777346153939915
3799 0.025747895323674472 -0.8371035515989392 0.22058379970154482
2720 1.2436709908004628 1.075587225966161 0.4644552635462665
2109 0.2442011611428022 -0.12025538277913676 0.2009208777931924
802 -0.9098836320457634 -0.3737124245881485 -0.4610219628213528
3203 -0.355541167082061 -0.2419451920192133 1.6870399423251543
614 1.008037769674883 0.8092418892174066 -0.8578769666915687
206 0.9595250449334428 0.8139240607896082 -0.9912322979802209
2594 0.9218284626741324 0.3576039990487392 0.7896921595536149
79 0.9561135222588638 0.8485141241290309 -0.7182354427428629
2029 1.1987105813819856 0.8444829079668806 -0.8098496509303479
323 -0.2510091004214174 -2.5780182871968833 0.1603297596735749
2113 -0.22511533729812747 -0.10587621611381207 -0.026809673345421264
533 -1.0117518945528474 1.925477866110382 -0.9979012143319682
2692 -1.4514765144698194 -0.42646338875067 0.14937657392631043
1410 1.1273257294555152 0.07615571081482501 2.0677755247215135
3186 0.7343598558107085 -1.5009816031510494 -1.5008039959270147
1641 1.060370918141793 -1.02695312863473 -0.544056075026117
3568 0.9470004178780953 0.8157521461448928 -2.522875560791221
3534 -0.14117141573377467 1.1742174828576866 -0.2807350816075366
1875 3.2353658312108498 -1.722386669705815 0.6636136574490972
3297 -0.8606047582692713 -1.1757614871230435 1.5108673541841904
2795 -1.5296415105491572 -1.53435185207185 0.24319481844120455
1890 0.09178625321585518 -0.6779413559165197 0.028670843208122958
966 0.8099357146097472 -0.4003111662822361 -0.8258823904456389
2796 -0.01159656297172797 0.6412649548695472 -0.01695916284689645
3515 1.3183628566131294 -0.8991441470218839 1.003083133982339
1864 -0.18937551866968066 0.515829469967229 0.2686962762512776
1872 -1.521911803430023 0.6645267182538896 1.600047656332044
742 0.19103217401814623 -0.3350071156107802 0.36846000813597346
3422 0.8311000426557666 0.9562025742739612 1.3687452638832236
2229 -0.06375320595774274 1.3220808612214479 1.1363815758168034
1829 0.5906202950631354 0.7159407388788477 0.6857219022059114
3518 0.564550487068606 1.536464316737929 -1.1279515862810114
2242 -0.09943046826058934 0.6347995861313768 0.040201629128414865
3877 1.4664063371525973 -0.7234957590574511 -2.128167722297977
3648 1.9272801720110144 1.700086514857653 -0.18688184381668374
915 0.11635515936784863 -0.9428094922254749 -0.8807350457795726
1807 0.49433428581032407 0.24814034313211733 0.4126163620413247
3635 0.9148740626185116 -0.8157245624948294 0.5465579160743264
1733 -0.48617026840453953 -0.3524356627218552 0.6339078581115748
2390 0.9028344728055904 0.3931992763002736 0.7914328315082394
1981 -0.40142581603220695 -1.6084836952444779 -2.1263471223102894
3310 -1.871290104172004 -1.8653981486976003 -0.26754701792869223
927 -1.50554155375951 1.3809569571709954 -0.40547308131108306
1187 -0.08876788544206965 -0.7057389495264743 -0.7867348010953301
3670 0.35203258581852875 0.03242005522284526 -2.072114783828597
2630 -0.3155220836339207 0.4121455552474742 0.23531428605421836
1965 0.29758738763705883 -0.6728745700847931 0.35228162788636347
3130 0.446973455657602 -0.34901687656200814 0.57544795470745
368 1.0496592289275786 1.2273258747078188 -0.5596234667272985
3460 0.4167022352612977 0.31905818246989687 0.8576483541046631
3468 0.6356248695211464 0.553499271441988 -0.41501989790836
112 -0.4375233900371942 0.8849859461337714 0.046229466688301156
1586 1.5137501503070987 1.411795898162789 -0.8541068959023099
166 1.2255453014202655 -0.5419944695204018 -0.9304108733512433
2669 -0.6077084253273894 -0.9476884155007597 -0.4805337397626573
1010 -0.6730686661949379 0.508139405664873 -0.8069982254414545
3387 1.081283014224001 -0.8259012669168524 -1.5221084077106617
828 -0.18953371064045876 -0.936221544093376 1.0758470212127145
937 0.3606255393583042 1.3270788227907175 0.9616883137739096
3653 -0.4813462869085784 -2.7050995045175936 1.2460591545995139
34 1.2805698103404806 0.05431628569492683 0.6686751511018674
3122 0.09811447276095692 0.6186099215605614 0.14462473089687355
3368 0.25214711946916923 0.7235296102533484 1.3289261764248117
2697 -0.7830768825642865 -0.8267499926698005 2.0099348297872575
2518 1.2030178841272454 0.2982927191178996 1.2737437405379195
203 0.9942322440284105 -0.11967773661023963 1.0314622142226388
3968 0.8211194561087316 -1.5777763558137003 1.8131393656502375
3850 -0.12959245651421358 0.6593615219358789 0.19336193969227736
1353 0.1343267568406055 -2.5663925625069006 0.8493377182088002
2719 1.013370659882845 0.7595737857622137 -1.0839301287248129
1257 2.958601367685209 -1.0857349190537675 -1.0919189993289815
701 -1.797082268672618 -0.05690336053787654 -1.0334338057166632
2513 -0.4285691336079893 0.9127839069686216 -1.4295673504431199
1090 -1.7225972964201117 -0.0008837088661542838 -0.19844333149366125
2387 -0.565115860599644 -0.3558121119082008 0.17067612574477778
1261 -0.10475523964152367 -0.1851994491527766 -0.025614788625018568
1617 0.9118806115632206 -1.294913505952739 -1.2947388000275062
872 -1.1696174844978122 1.1245471504857307 -0.04123990011470553
2196 -1.556384558672686 0.9049561290815544 1.2643312793880628
3633 0.7763607069699813 0.4740074078197365 -0.22003848712436289
3463 -0.5835794844335394 0.9670222588888413 -0.7927242772728352
2958 0.05795809904279778 0.7178041039106043 0.47128258349561775
3641 0.18336365977458824 -0.38574411736908293 -0.08558728794053039
2561 -0.760271324655278 -0.27898749980539994 -1.1374848538847242
3659 -0.1570388221639992 -1.798129622867756 -0.6109592455595828
3484 -0.6187421493001326 -0.8528238355638518 -0.9789193398846163
1100 -0.8475323335553185 1.1723114055023254 0.24043138537701245
3528 0.2769056872483608 -1.2603252425638 -0.419969286156422
1530 0.9491598734448804 0.5828341886861178 1.373347960517378
2909 0.07006593803300949 -0.3156797380965162 0.19336403060773869
94 -1.0552744697467793 1.444594625127313 -1.0573470541410737
2046 0.19165065392749836 -0.6531409111452278 1.128726497500412
315 -0.004087384362428089 1.2346032904885802 1.1125376722555929
1894 1.0692268597406107 -0.054471016877298974 0.2640850891812698
479 0.5898029933219989 0.207331257007385 1.0413317689344928
1968 -0.52213052486794 -0.09733084287742584 0.25850769342160174
362 -0.9755576279048591 -0.9501038834350055 -0.2865096251101371
1489 0.309369907061257 0.6010510919397922 -0.27752876570053925
1123 -0.00046855228605801496 0.427046044913976 -0.6780908588445343
2776 1.7005356707252062 0.5507636031958782 -0.4516813604738948
3304 -0.6558091897447017 -0.16161873141077146 0.2359549740806383
158 -0.06565628666684228 0.4178476264509831 -0.4776581612380592
3650 -0.3192350110607207 0.5531125585674068 -2.541642410335609
310 0.5484940491279268 -0.5669246785631332 -0.6800890614341718
3271 0.7583295584782771 -1.0985000519023658 -0.42702702362255734
2918 -0.28543936161857975 0.08328671871223461 0.8720681031282133
3886 0.6944882393285636 0.46354908307477416 1.100951170233696
2178 -1.2350937079829898 0.8052588753243469 -0.7919619122215035
3019 -0.9743679143831304 -1.0951379067027818 -0.4901318401981671
3961 0.8617814085330963 0.9221705642824518 -0.37989499331118376
1286 -0.95122638952343 -1.7787174552959313 0.1906069619041724
1658 -1.5068104026521778 0.13978596516708858 0.13029979146182155
3655 -0.2653841424823169 -0.19001583224954244 0.12383765160725925
527 1.5620804342715033 -0.5772934873206381 1.3803245126988264
3084 1.7394059989800008 0.06620734433147347 1.547447940938084
2973 -1.5788724969453298 -0.3444722615388205 -0.9699346353019317
1666 -0.06510709804647777 -1.7870656987455664 0.30958523191373705
2285 -0.3550173382976931 0.5615472684099614 -0.1698710076253993
2919 -0.4448992397863579 -0.07673189214010541 0.5460574048168473
2821 -1.4216432330696855 -1.1305811633879037 -0.46941310792845026
529 0.5085138233711557 -0.10653268135166276 1.922677447155425
1702 -0.7029742632616877 0.2737702913173592 -1.1384288031546324
2654 -2.031522998277759 0.301520722532051 -1.5908254413586047
696 0.2624011818523276 -1.6947731672884923 1.720131770786307
573 0.8815396795494054 1.4724249250590253 -1.0364373969658403
2101 0.4342632868577835 2.213793107690167 -1.5085880102077733
1797 -0.39225885416704215 -0.18874911973467004 -2.1786244894335045
3970 2.1589722420424486 0.15506869040331195 0.7191737455188812
1040 1.0796722565804806 0.9175618809132013 0.6569399166925823
2030 1.3789128044511954 -1.2886898352045795 -0.4411037318639222
73 1.1762953112197476 0.42838277110053674 0.4171696594270596
475 -0.37025897433969807 0.08906919580961103 -0.21675603547562974
3095 0.5875342416907973 0.1934415498717869 0.02381014339582015
3445 1.3772603561292793 -1.1504090269850011 1.4372641214362019
279 -0.07217254440464692 1.5306101143625839 -0.33841776106996296
3934 0.532979426939179 1.676832185588853 -0.18719168276427975
3365 -1.032218848653138 0.429785747414108 0.7306923161797155
470 1.0009505430770496 1.1009452757582523 -0.42884481576735217
1698 -2.928344274911133 0.42214243035723387 0.9590581830256811
3342 2.1667454917795848 -0.22423942994922888 1.7634389681813671
3790 -0.30526638779641424 -0.2344155885468772 -0.2959023523759125
2041 0.1487441429591796 -0.9711766476594869 -1.0151275195812608
2154 -0.2348926868731036 0.052405684275974265 -0.6886026149544444
2243 -0.18990578724230267 1.3094690444961024 -0.06499733746905413
3866 1.3864997509691244 0.14867339776383234 2.8826049664071784
2714 -2.3867736872933336 -1.4950338675497499 0.7025625207098722
1239 -0.3895636348034873 0.1478954313458513 0.6950411306748893
2772 -1.3988374632623506 -0.6573387420929605 0.7774582919205484
478 -0.19702649557039434 -0.00775834966397362 0.10628990396382974
9 -0.0065750458986503805 0.6722889502865721 -0.39159646273637805
2181 0.4797884250603004 0.10427211661126286 0.45045038767657614
3278 -1.8790910559721983 -0.1832594293592287 0.7286830058628199
1055 -0.08412049941618428 0.9786547031370197 -1.42316079459526
2761 1.3570699593853282 -1.502095437129585 0.9262067568440492
639 -0.5155419996821561 -0.37566074765538554 -0.9915151652165779
1210 -0.7016335555750141 -0.054552757790842114 -0.3372314072491181
3762 0.5610998752597526 -1.0661344472404275 2.783718699102717
1429 -1.0086213548679046 -0.8248885462686533 -1.2035476000943106
426 -0.2565371211524704 -0.668409702002681 0.18674972902158754
2236 -1.4778424223923863 -0.34837661948920673 -1.4905860778000726
1800 -0.9248738178662607 -2.1098054232661676 0.5486722024463432
3548 1.5914643135296949 -1.0441967012702102 1.2305502112072757
1285 -0.4366007589430167 -0.8309727576844453 -1.561269584449006
2637 -1.983152971321045 0.45499847971030727 0.9670456966974756
631 -1.024829620610187 0.42222265092723715 -0.8065915723796332
3405 0.6200504546400639 2.126527675746068 0.30663919497743497
1653 -0.7224544772459911 -0.03170516566317114 -0.013144881936449977
636 1.279173621715912 -0.4165101263906932 0.32786448578545235
1459 0.8521478043586277 -0.8418532215995764 0.2100364426606464
2482 -0.4213824214889767 0.9191191410881646 0.28926057934538696
2453 -0.18656718944521222 -0.20615935494547336 1.394690285503943
5 0.07827540907322686 -0.23901562103208682 0.09590378181503922
1130 0.4987837688868405 -1.1726374642607666 -0.25410365106265037
3429 0.8179649473949451 -0.12680522315384773 -0.3449031407296125
3773 -0.3416577770591503 0.33540595684372 0.42316251543494143
1363 -1.0987399131988198 0.9583301695483235 1.2713329642107472
2100 -1.1565524660511373 0.9414330235255557 -0.06962131883796754
1604 -0.09746527018641715 0.4395535922757172 0.03733035718895588
3152 -1.2916273417585182 0.6484490197879625 0.9839137200141598
789 0.19175151646379257 0.46202624655123803 -0.31295497618288304
2765 -0.2931606997032399 1.0711285934077213 -0.23820975054463733
3234 -0.38265974259202806 -0.5281246122691823 0.1310867539565032
3254 0.15458689418109256 -0.5649484092479293 -0.1619509404480316
2606 0.175017885099065 -0.7696193637599942 0.35830347325780104
305 0.7406690542377833 -1.107078432326516 1.5845827750475219
2791 0.6098592323220389 1.1942202977948841 0.2564721614428419
3948 0.49290675391273664 0.9224859507725458 -1.7594150272013818
1758 -1.4066193126031366 0.4292920857210012 -0.054364983313598354
205 1.1783324936023658 0.10993810275054462 0.4504878840594745
660 0.5369586562604797 2.378278530449645 1.0546564185582952
1893 0.3013435015647305 -0.6815363059943983 0.9678958221668924
3312 -0.5433255614920816 0.028883562068632275 1.4049105168181872
2833 -1.5219939482850542 0.3535113282270516 0.15428572302834126
1601 0.055195809215020576 -0.5534330175795509 -0.2052747121589539
2829 -0.368230339351202 0.4502332106404797 -0.49490138726967997
3999 -1.682392325297902 -0.7841590272607593 0.8537751492416431
3396 1.8793727418305277 -1.3221732798598655 -1.9690394475139814
2166 0.5723491825391539 -0.12971695138285722 0.12218572079318955
3768 1.021141314924342 1.2564718121654617 -0.03019914594518736
3976 -1.1503248163794022 -0.1740573689285473 -0.3574813162868675
2287 -1.4992876728312627 0.6013116142372589 -0.027651077458370265
2562 -0.41922628623685126 0.4858559563236794 -2.7588572088108845
3861 -2.0354151651183066 0.18241576718912936 1.278320326587135
2941 1.7289769111671465 -1.3207099271745013 1.011539891416758
612 -0.5822991005019273 -0.08613758696849437 -1.296160317094416
3294 0.9416238725286314 -0.6972164957644141 0.6362829262846345
3871 -0.372805971305896 -1.774759372689884 -0.04464824709866452
780 1.8687989746522233 1.1655057015958008 0.49469045478746126
580 1.3490847602125087 1.4740353511394886 1.4327362492853102
2773 -0.3938444871374794 1.3496391406698878 -0.43387516705441026
2124 -0.8344846005341773 1.533883253602204 -2.3777146283078276
3347 -1.6285134919273885 1.113202975388822 1.007599920931616
2757 1.3769642143265017 -0.7101863927004085 -1.3273500927885393
3906 -0.8138673296116153 0.42739309237832934 -0.2694154577027779
3830 1.9222913425418326 0.8660274968303782 0.8001589444616009
2330 -0.6584980898428875 0.9150152634093046 0.46911780960031346
3097 0.8245324635722835 -0.31260221097017965 -0.8381530180420065
2912 -1.1253071274238846 0.32208424977325406 0.7029008252352745
3669 0.9300671045615391 -0.4392565667737044 0.21784984533500887
1067 1.0259029043923056 -2.0803400470063185 -0.808100978849765
173 1.5126661082629282 -1.2219280917090642 -1.3848226267452275
1793 -1.907747728902267 -0.506165602537244 -1.5760236005407584
287 0.23031964008958597 -2.0166303522497913 -0.39670445797392273
2800 0.21396860302748422 1.8017355547450202 1.3894190178126984
2114 -0.35966021691988315 0.7425293719495888 0.6226598452494218
2161 0.3481200246839859 -0.5464694040455264 1.7232043116828049
2393 -0.26483242999339385 0.9495274907047005 -0.9651182842424322
2915 0.7877336372089855 0.006392250696555725 1.6480283428331295
3695 0.2769756711344927 -0.43642110126415445 -0.6257936559996948
1923 0.5501439687179204 -1.0826479488426168 0.900577765434642
1269 -0.06777537302512243 -0.2446687663586063 -0.10107562874346451
3467 -0.13574292343276373 -1.3514589324350315 0.6728818962785114
376 -1.6420083916297221 -0.9286629920217737 -0.5489565438813254
1933 0.8419912937958466 0.39839987431560425 -0.4979289305504936
2538 1.6645439694843045 0.5259976327242694 0.03584485029889086
1023 -0.04335610250770437 1.6875360715563332 1.0373349586109386
520 -0.08469501658130622 -0.2593602310030014 -0.4870328773370998
1767 1.3523105359209364 -1.178571932881108 -2.6428716043860545
1114 0.029709395826593987 0.1317434507638055 -0.10071857982668117
532 0.6956789380865099 0.37115907428049977 -0.4563248029543607
2820 0.730142221076932 -0.26172682767092176 0.7344581418723694
1691 0.4735827540323034 0.1332208883947571 -0.05024766677548044
2861 0.5861227467284835 0.4941733452465594 1.210126265428688
251 1.4305963912322932 -1.1088816924970524 -0.8900836338807777
1768 0.20092270509797763 1.3614858763547675 1.4965211073115618
1501 -0.4136307232843753 0.07518401954898052 -0.43224406398475795
316 -0.1837568879751391 0.32337568532751104 -0.13865641374527005
3354 -0.45960600750148095 1.2362242476849525 -0.6297012113120305
3260 -0.8485957131454586 -2.039724141582997 -3.0197290032395787
300 1.0734954094691314 -0.45140982661086165 -0.2746186927795385
1727 -1.164345173812025 0.5864009284656148 3.018075137776831
1117 -0.5023697381909634 0.07958190758867108 0.9948901811071615
3192 0.7699002467910232 0.2165815916196934 0.5676314156966261
1162 -0.5916405323362959 -0.2729209000829751 2.2567773799269144
994 -0.11470341206926117 0.6158989137765948 -0.09490918522690178
1002 0.345741945440101 -0.11835771498942008 1.7227827804179439
885 -0.806453064026803 0.05815876995488737 0.9000814063555136
3079 1.3693769780263867 1.6002209635609317 1.8276766074294761
3246 0.3737524832824163 -0.7381242072703817 -0.8123377221645246
2260 0.756364736591029 -1.0771195570251133 0.21768239217661933
3793 -2.2379119069215716 0.7830218915147679 -0.9233856383276329
809 -1.8763629375139736 0.6699129525694197 2.243924754577524
1467 0.23877996428519302 2.457272068965043 -1.166593087676473
2090 -3.0640900723183107 -0.8337769175368192 2.218079587673796
818 1.1876467155916286 0.9123897903254454 0.7325435078330538
2205 0.512426156287089 -0.897406838776084 1.3154637720013285
2191 0.5036831338614565 0.29437983074932833 0.8911461175970422
3069 0.2660742757624602 -0.019037572030770604 0.23193651926506104
1786 -0.478519972193027 -0.07424826786399204 -2.000479562760129
600 -0.2832018644676499 -0.6008738346848966 -0.09027351423408635
1773 -1.746715571885554 -0.9576526909475797 -2.5671900289173664
954 1.2858152438723383 0.2743453750590878 -0.16655721153153252
3372 -0.8603583855079796 -1.8452410215697128 0.5765765481142702
2352 -0.6347063383076165 -2.6657824290303256 0.5956764014385699
3684 2.5527432532647985 -0.3008296294035364 1.2384224264348003
3821 -0.5470768157426943 0.8239648438869134 -0.7557578360596929
3400 0.15862062255300036 1.8812574766843828 -0.3991122285570408
1453 1.298398008232199 1.323878333193599 0.17975516511460565
2882 0.8322512425010106 0.32257265324623335 0.34725320588606934
1129 0.30017236623569254 -1.123219998173226 0.2408863749696607
559 -0.169916950408055 -0.394951777029583 1.3995388447698645
924 -0.4666770814587603 -1.1063218145926814 0.008235041707190163
3617 0.7657094728466423 -1.317838720854196 -1.2172539378849105
2216 0.37466550917813707 1.2786598787680328 -1.4889798965716865
2293 0.7066206453546942 0.06010852105847823 1.0844736158674417
3798 -0.5253274107129425 0.5577637187922181 -0.4731779055505615
2936 1.7438843665182855 -0.21604100949438393 -0.4624091739069866
3357 1.081545911237053 0.05093604343615004 0.34172188483132204
2626 -0.14276577504865812 1.131086560538706 0.09980030347927413
2884 -0.35007067613415155 -0.3565331204297883 0.9215429432850264
2663 -0.061770670876776824 0.3432569284156942 -0.21979100484056993
3631 -0.2729584695903739 0.959077647374454 0.6459055534418634
3190 0.013871085971203283 -0.6054402315501123 -0.9842615522385789
3975 -2.1189307661318684 -1.0401912593595783 0.192186118033867
1568 1.1068713212397805 -0.3829051889641486 -0.29953653033171557
858 0.38045819571005185 -0.35199809595878867 -0.2004422962709745
252 0.4069895070022623 0.8551414891510642 0.6798463458145247
3645 0.5030474884767557 -0.09094712200252644 0.7824861867728101
3543 -0.30482780892653927 -0.7540447158536367 -0.8456255945306427
1993 -0.9492504328073279 -1.9480711448654153 0.9655847358038823
3505 0.1845228471806638 0.12764459154393593 0.55397273227245
1494 -2.5384908709729754 0.4505984604768919 -2.899418081968517
728 1.6981478825101974 1.099161000088662 -1.886280492203751
1095 0.26423360571403604 -1.0863510173194058 1.674444381127935
3753 0.028923587740271546 0.5520315187839243 0.15170513601992833
2016 1.5525662116743946 -0.9332389377955638 1.7694789941196427
1724 -0.25435563188754406 1.246953540913797 -0.1706014407119966
1686 -0.567284819629389 0.485642740544753 -0.4642156797146147
2874 -0.01929959671338696 1.133934225046779 -0.7253780506185616
3108 -0.936839184856104 0.8722154975279166 0.8454430220171044
53 -0.8795950470487252 -0.48155668944510577 0.3958801843701738
734 -0.6189061620158139 -0.020138385790269213 1.1978382800173102
261 0.541126983707886 0.28520245588581655 -0.9071337137158402
986 -0.8278948000874917 -0.2688855880049275 -2.1033733897761477
3317 -1.4816399692424136 0.9281701798661666 0.37352140920416166
1062 0.7398677474367087 -0.6740118020217505 0.37067538044444365
1312 -1.5135400149727631 -0.24765630133946995 -0.8066473295711352
3569 0.44909561382163354 0.5587674746417132 0.3432726793569569
1749 -1.084358361562394 2.0222946783718307 -0.9417219537191247
2142 -0.3186033819550925 0.06771064105984274 -0.17284671277283833
1533 0.7350678364005204 0.11310009365201001 -0.7693704822485178
2977 -1.1315628252719623 -0.872330938305985 -0.001267960564370879
1439 -1.2015256868858675 0.9736020839198619 0.829312341881706
2410 0.5003596500326991 0.8698512759236853 -0.20716943173019445
3746 0.2533387433806561 -0.2682351469681672 -0.5074611490453331
3352 -2.1190265703954303 -0.8346364724291282 1.547785020356204
825 0.1788500522998186 1.7840271256510007 0.7342090089585449
3632 -1.1431949110757402 -0.5989050159347891 0.6857857715827362
943 1.1200891598487355 0.8362158633766879 0.3709460128092139
814 1.6098849315209265 1.0247247498796064 0.989678404714749
2232 -1.2169692670533465 0.56449049785844 -2.043512033661795
1001 -1.522119165370796 -0.31431849276520923 0.5623901689744351
585 -1.4657332181252487 -1.579864275200151 0.5966764098250416
1978 1.4152255338067932 0.047814306744949554 1.1286807788862636
260 0.467461260400333 0.2205251357211283 0.9194111115934517
3326 0.05429040498066549 -1.1908984668918647 0.3070072969876657
3188 1.8590784474606254 1.510916299440085 -0.49913104920853985
403 1.7989216056807344 1.583595887036967 -0.5369214702121455
2748 1.2584989689392672 -1.1108818968488992 1.386678690104082
2427 0.6325531039641099 0.3138397639072159 -0.8782435471837082
232 0.12950094301394427 -0.4979244281507278 -0.6111463223498312
3249 1.38985626165224 0.5625627131186148 -0.4285789277279823
595 -0.17987003452068104 0.05606362306403747 0.7829210815890328
1127 1.6848977862170815 0.2884144553677899 -1.9869451513906529
1700 0.40325446838697243 0.3954795613589657 -0.3349958396803566
647 1.4239364297426838 -1.9673687661332493 -0.4852479365389082
1670 0.5301636561967888 0.755198382383534 -0.5353273475579378
3775 0.839003299351727 -0.542880314961905 -1.8569782035976485
1802 1.1800341321426873 -0.9845885606675067 1.9751606783256097
2503 -0.631410232870596 0.4519244326810073 -1.0897143421190167
188 1.2960647232484221 -0.11523080826129604 1.3129452273175997
3127 0.36946020320179523 -0.49701581064529254 -0.22250400044864038
1572 0.9156207836454081 0.5462361382667925 0.6909525912654376
689 -0.7673552000352302 -0.7006913089006479 0.5144780413894582
1966 1.5062724487085177 -1.2934293618637676 0.8031298768002074
3296 -0.6248608683146204 0.8892612039364166 -0.815620516127309
1204 0.46905275694875065 2.213053505495783 -1.7768412931087931
3217 -0.47488661240012614 -0.09940350976313293 1.2716710604462456
3039 -1.9566320147166978 0.5436509208453106 0.0026614201871951533
680 -1.1072324887301526 -0.12779784281832401 1.5932144177770642
3550 1.4638207125896747 -0.1501749837658807 -0.23601548735364267
1398 1.2598640449924254 1.5133348735405663 -1.400387328011543
749 0.5031903198420422 -0.5524293877976955 0.6682070134573916
3680 -0.5472126823438327 -0.0714556106954929 -0.6662944866498778
2619 -1.1121798691176692 -1.3890575042812703 0.12146040414652591
3510 0.6471981184559047 0.6677673699552521 -0.14091783462101076
1358 0.12556156866590767 -0.2725549581232966 1.1847136098337814
1157 -0.6061204957312019 0.43462644154581914 1.3376055012475934
1611 -1.5383648020965408 -1.2351326538055452 2.2648400446635097
3382 0.4482645800967879 -0.6108332633288919 -0.10513971717480097
176 1.1713570190503964 -1.7073237915039734 1.0008583198782026
663 -0.9281700180889243 0.8949605710987172 -2.4054171373137176
1159 -0.03199655315687388 0.22632283520591756 -0.6060585262746141
1769 0.08773547872994246 -0.1311570604656725 -0.6544392018261865
1320 0.7079256866509805 0.3826420667250455 0.5831086026138624
3156 -0.13702998127134713 0.272272956948987 0.3879630839441597
3414 -0.7361808792548544 0.04485872137913201 0.6305138494584316
1687 -0.6539758339371584 -0.7106368170098603 0.530838277455149
3410 2.732127519853535 1.9404279022245778 -0.05674672935817728
2062 -1.269235872986122 0.46891748756868595 0.2603104141436025
2537 -1.2198108193962376 -1.3929883966629741 -0.025863687484757997
1368 -0.9016565620102933 1.5165452361633505 1.7400810114976777
2493 -1.217629252924151 0.3664196216843227 -1.0594180432272813
1774 -0.39232896056609545 0.4020159910614669 -1.5213991310624704
760 -0.5722023329257616 0.7979790713223028 -0.13728095251489286
1382 -0.7814822880238264 -0.22877051215753635 0.7711141652376923
2268 -1.7905688538375668 -1.117636594099855 -0.5388657179390698
2150 0.41062539536809867 -0.9551801974645565 1.2268348226601358
775 0.9845666959500812 -0.38627792033560643 1.1627355662674594
550 -1.057345408910668 2.260595647138567 -0.8143661401985921
2075 0.04264708338985753 0.29480603152449975 0.9658353536491604
3845 0.7854839396315585 -1.920241541936319 0.7908890200572287
3221 -0.6208072641221883 0.8765462542028608 1.3573974237565989
2244 -0.41367028630743297 0.9836022019352676 -0.9560897559555519
1391 -0.36709457831622766 1.2538164482284633 -0.4409092419254949
3574 0.5652832774921853 -0.8907674432662432 -0.7221388075474758
2384 0.02335808553660793 0.7515932061417054 0.021363290852991365
3042 0.525512737570994 0.6529079496806329 -0.38400870020605726
200 -1.275766970620866 -1.5858514459137807 -1.2560290333675128
3931 -0.7831189276632088 0.12003245289343782 0.08690626335316325
2860 0.23986758489277402 1.077803946978765 -0.10147093292049043
1491 -0.6210370870858374 0.40546819887258323 -0.2533443948902535
2177 2.7133633286579566 0.049841173135480886 0.03691752016208057
1213 0.7561362818377052 0.7903547227291121 -0.1562149138969995
2622 2.4760348724777437 1.0779438327631146 -0.20489050980706663
3792 1.2266591206884851 1.6203065346290835 -1.971124721945076
2282 -1.4476808801590122 -0.8272903753981387 -0.5242756242089286
1083 0.02971756161472256 -0.396017430150577 -1.7846523927957192
836 1.2920498449774023 -0.2030522570388972 -1.0465279783766332
1441 -0.679441628856069 -0.6428937984816339 0.09723310929780771
1589 -0.49446087739865663 0.6694065757960309 -1.1233894832408524
2269 0.4207897120544108 -0.38721282899125725 0.383253001268676
3363 -0.7823336610086263 -0.03528259178026263 0.797259237337018
3559 -1.8007473128608562 0.13977619598558969 0.30812571063124505
1392 -0.994325807506708 -0.8022423188643135 -0.9110620770585829
3737 -0.5120917640631528 1.2400573657052105 0.15383049045683642
3427 0.42152398834681126 -0.08019769762379979 -0.22632823477235384
2040 -0.7168880575127823 -1.2586179787582847 -1.2910950096870955
3561 0.51000682194789 0.6083245082945782 -0.5486976031999664
3864 -0.06966593577416828 -3.598969082192864 0.6572043819413012
1694 1.6259809169581116 1.654252165700196 0.5867020719504283
3013 -0.09942365289320113 -1.5320795795681978 0.41432401843711625
1627 0.2197177434025174 0.6624003536540487 0.6536401961786813
278 -0.8700527364861462 -0.49793889396917806 -1.5752508671414869
3819 -0.31992883387358956 -0.6589156890342371 -0.31009261739710575
1634 1.9883342352132563 -0.1803754214943648 0.8833939437309948
1308 0.20854205585034322 0.22203649587378196 0.20452293356231552
2394 0.07352182760697883 -0.5171897704965812 0.8741590631954832
2668 1.7527035248803162 0.8117803264874969 -1.480052064173633
3086 0.8987637983935965 -0.514045337803308 -1.1500969807775743
1411 0.37829315671859326 -0.3127946185690455 -0.36006637517486706
31 0.1907986457906133 0.34162473361397094 0.973260743615609
1692 0.545591751298766 -1.2902898223858392 0.4903889305110929
861 1.4120985442333045 -1.6920866028763366 0.9327831703073619
3193 -0.2141643161483275 -0.6812865290448133 -1.3464625868403168
267 0.33927150635755815 -0.43409382853886463 0.17275299247205317
2898 -0.37433236978029644 -1.4874007561006535 -1.4767751753551845
3247 -0.4439128243483391 0.7146660992281768 -0.9077546551980717
3894 -0.6209604141255671 0.6409393332767964 0.2898596255934373
149 -0.9480245961132602 -0.4748276050794024 -0.7676548018290624
744 0.827432032188558 0.49421370244955454 -0.5502381172496397
2508 -0.16461877563172048 -0.6073889269868079 1.5489893847194518
3779 -2.0730024130980302 0.2230393607003575 -1.7814265409226573
1080 -1.4865561593517924 0.5435414589331397 -1.1863975902287733
706 1.5348784382144902 1.8305690729238657 0.0876840869611796
2140 1.1347232576906068 0.2732729435151175 -0.6105420978770373
607 1.1888278268399688 -0.325532612615991 0.5846547794240239
1590 1.2850905650876359 -0.3752839326787006 1.2298815533912617
3327 1.194817943309964 -0.4261252787970256 0.38902682713586845
1643 0.4940261459724184 -0.3979418185114871 -1.1302739847361656
3412 0.13816585143374158 0.5896709332425597 -1.4271364989673376
2397 -0.17934265333311622 0.7686392765158716 0.46537233602090583
3728 1.545624101421708 1.27972384897937 -0.27307037046851423
1510 0.04100043467788049 1.0812747495581878 1.5329486648979938
3582 -0.9493567890506405 0.4039691117308327 -1.6721875315921522
1029 0.41375241427226134 0.9126558335879182 -0.1314817608881522
3032 -1.8845794343912945 -0.7361836983601254 1.0993851582280507
3865 -0.6564361539644049 1.2942585313827415 0.46463113881032003
3683 -0.07487923574537991 -1.4068980648329168 -0.6636535908992501
3791 0.7904318651941722 -1.1321327412476052 0.0743324929192347
1696 0.28592211381863625 -0.9220436268820056 1.5475053690857155
369 -0.5389852397376859 -1.6837198407997678 -0.6015109515382343
1605 -0.434422147579418 -1.3645948298785442 1.3225202050721676
711 -0.04695740801717625 0.17968877557270097 -1.0516623958199258
1847 1.8334684272804544 -1.7313031048058871 -0.7499530089469361
1901 0.05705541094972041 -0.03952872844969028 -0.3762460314696951
3856 0.37411040058181555 0.06502442576765717 -1.8751961202240996
1192 0.5651775524662889 -1.3611947425315132 1.7301197522650245
3890 -1.6693519121561575 0.5768840106556007 0.5122817030995078
1025 -0.1892015251938329 0.6734596669716532 -1.4836538567077526
2843 0.9925718309455013 -0.8608142399812084 -0.005042588367443063
2571 0.18352984232477318 -0.8466570366066296 -0.121963559122172
3942 1.5675884942440972 -0.7612965796352208 0.40206741465668094
199 1.6209655268285075 -0.322226152314463 -0.6395740943294321
2627 -1.0606015006790515 -0.4594430992795077 -0.16578886260836195
830 0.41723470086434966 -0.7378979308123513 0.08657502393308986
3888 -0.8019591709833295 -1.423097329281514 1.3434818226128444
239 1.4398084190912528 0.2080455629825572 -0.38808388000433536
1477 -1.2090774510714175 1.132845558239104 0.6940167140337341
3214 1.175082899849362 0.7903623959365836 0.05249761072769945
3385 -2.6121849616639574 0.5066927553032722 -1.796670922279322
2362 0.586889046409233 1.0808756324754116 -1.4438126352707605
1485 0.11063114168358909 2.5493717055227414 0.2605590687123386
2798 -0.9435341388653309 -1.2170942059789553 -0.07566833175335576
1819 -2.5082440760533977 -0.6597888476757224 -0.23302559258434566
3535 -1.1631573005744242 0.1781499398588284 1.1354908718130765
2351 -0.5484784069898194 -1.2165075566077526 -1.6354385941891727
1310 0.2474487626398085 1.478328616576147 0.6820147545226873
779 -0.48151568976980574 1.970720514878873 -0.08442890647955666
55 -0.3724877472107154 0.9611211104365468 -2.115066086110119
3341 0.8792410219854625 -1.8585425397314224 -0.8014132143161531
3371 0.7954110421046473 1.4998547763311665 0.8912663364175899
982 0.18744361824624092 1.6461379819259239 -1.262906419457767
1739 0.11051057583247283 0.5852500581327792 0.18889694210628014
3143 -0.26113291883198747 0.44950190990005395 -1.3931430783304686
747 0.6399093942476434 -2.196430278257525 -1.1761144975985753
2044 -0.5867740186855958 2.401413731488798 0.48176789918811663
1428 -0.6085363848359172 0.334219708304115 -0.6849012795714657
133 -1.6446565349865203 0.9371633185270498 -0.5079942081730278
2344 2.3275783786749007 -1.996988486684145 -0.5734773472692283
1104 -0.7409344426839692 0.2683965148914933 0.8994280556920375
2415 -0.5312984819636224 -0.1463849734038588 1.165605395858958
2425 1.0778624226759335 0.31393001091139255 0.6621059716333254
2656 0.15169301931153628 -1.3511511960202287 0.33124732743344604
1103 -0.34877525037953216 0.8929335844126186 0.9087241027218169
3782 1.4293750162913987 0.5738448637438731 0.8802373309803426
576 1.8723906637716405 1.4715523207767685 -0.2345877925424904
1851 1.994507306466864 1.1363059646354143 1.3530132487772872
3604 0.25384044268885125 0.2826234583915368 -0.773727939188375
335 0.12112813220001674 0.4756866944908522 0.9226126281070416
1452 -0.4813946153388368 0.5799805391238406 -1.5506182926661718
2767 -1.6178280116702328 -1.428542563782179 0.12031128007395113
289 -0.656536961133612 0.3075640892284491 0.20557675445952406
477 -1.3199628892670614 -2.162927467224415 -1.4866638792624514
1622 0.2092899866213427 0.03657666593352792 1.749450040194029
1764 1.6345893812391472 0.4579386763452966 -1.1168692309357664
3770 -0.15011675271605218 -0.8122543967685562 0.0038346996462680053
1874 -1.3349573199357303 0.255932794078596 -1.2662069839459023
3993 0.6053908504863225 1.2102824488061763 0.5688610368051483
2122 -0.198787821307953 0.745606896315152 -0.9146759547228545
2162 0.5384196809801106 2.1854468306514274 -0.17330106388454014
1502 -0.7660536880274328 -0.220964714399223 -1.092950815513298
1596 -0.15451295014521307 -1.725466730365473 -0.17500766639729654
1759 1.0882164066888824 1.3311278294211013 1.0922736572429277
3107 1.804173513272874 -0.21919137283298454 0.5864661923436502
3862 1.3043098197815606 -0.05371259365521527 0.420710710049684
2248 -0.8802190722152682 2.055481488831571 0.32443341575337203
1644 0.5277585535349378 -1.4210214283784246 2.181224050497573
250 -1.0559262418500417 -0.11070058343678968 1.0683300301520458
2582 -0.1570935029792273 -0.01773505282359484 -0.6239014350051446
768 0.7331979068265067 0.42501362161062306 -0.11730250710488155
2964 -0.7984226708425172 1.2821605960081695 0.1098482095020033
522 0.2591772285343708 0.6179173726065533 1.3298074070318688
3450 -0.7143153879659124 0.6184319238861327 -0.5510712341068784
990 0.1623670875275886 0.6230563235490425 -0.9074761805184016
2048 1.2327384154927037 -0.8538847529413381 2.1923999128843743
627 0.046103057937936696 1.2351295890495881 0.016560521012605037
3835 -0.4032612797077819 0.41773859151444737 2.147881734190911
1191 -0.7593724293162932 -0.21321462105012104 0.1772688746698114
1218 1.877183133726644 1.1922283632629112 -0.07750806316852528
2994 0.8290439377338432 -0.9404051940854498 -0.22343193081528867
2323 0.39149466287175316 0.7360916965756086 -0.9891593699323582
2169 0.26073414431567704 -0.4647760889392063 0.20233817912652224
1063 0.5565822904762551 0.42152474819705726 -0.5065102266054211
379 1.4122774436714578 2.0148723172755987 0.02426792912116184
3374 -1.5919472293149153 -0.42262585223878585 1.0259534554006535
910 -0.1258463534787592 -1.2208903070939514 1.4562443936917986
152 1.1869329670688185 0.1505829362958467 0.8835849524977807
2952 -0.8851791910185761 -0.18373546206543806 1.4882276161559418
3929 -0.054365313681868664 0.2213737286641101 -0.7237581497745166
2981 0.2043333792762254 -0.16081273853656114 0.10113146745835057
2386 0.6202547429785682 -0.37728864374567633 0.00813180547471405
2520 0.27820611590331423 0.6350126898354892 0.48510118510185957
1974 -2.24944167940176 -1.7834206609854386 1.9127436505265314
2187 -0.11349433920560188 -1.0460844431816814 1.4646046767982046
2588 0.9666615996062081 -1.6388903651245366 -0.3347636726173305
481 1.1132914006912966 1.3338002238147022 0.49021476104984746
3218 1.4105484260049395 0.5763871023786366 0.41167599477597855
3059 -0.5098392063143738 0.04342785128614318 1.9713514775956393
3566 0.1683463274821478 1.3498875765547331 -1.5979639485874402
3922 -0.8637398945435838 1.270973163831949 1.1395931839378892
207 0.8440685493760043 -2.1710126913423053 -0.4948789916690412
593 1.1216003573232298 -0.1308595015305616 -0.5083693231481051
1827 0.3793989556754268 -0.05986905041174207 1.5123708237819262
1069 -0.3566262613721244 0.20979461795803114 -1.6005059757464015
3161 0.8345744592039743 -0.4967523425116292 -0.5184021571018734
1941 1.0500082917036486 -0.13914720222218574 -0.7319493889771791
983 0.6035936457631053 -0.974075657484677 -0.6613640230902386
720 -0.026585781633115278 0.15762109082583273 0.3401495305368658
664 0.3426545909711708 0.8309640344397831 -0.24800467570397033
1073 1.4188282287676437 -0.03983354929305215 0.07906618902883795
816 -0.28948910244555054 -1.2981999892846314 0.4727989504025952
2357 2.218810513807125 -0.2492059595642422 0.6265077729961392
3138 -0.9723705136820602 -0.9844723516923347 -0.07499111450820815
3880 0.4650573699199384 1.2608106966073664 1.2843927779434186
511 -0.875140912163498 0.8621848831252901 0.30887846276652603
3490 0.11569415974587409 1.3093150960029127 -1.0857318028039544
3355 -0.18751764090202333 0.5468023277640105 -0.2707004145003708
2989 -0.9646461261302709 1.999159452103724 0.46636825003627635
366 -0.6704361070102298 1.7801719106758294 0.31124312780254076
581 -0.0015206733934994816 0.9241677523624083 -0.4093069354009824
3280 0.26993563186354674 -0.02388871281636828 -0.9139675184797298
1071 -0.8121613220135135 0.7218651037085455 0.09792332628621044
3136 0.5934864632168453 -1.0084566078523869 0.4708219586500574
1541 1.3548224059175302 -1.29930101218343 -0.15700957579058852
2400 -0.7024754584065734 -1.0320883069476483 -1.0826361476344202
1226 -1.2225070385683228 0.24674969510170994 -0.8492553065457339
942 -0.17213739240346684 0.5856766781807952 -1.1549995595235478
658 -0.4559917936216595 -0.32090411416432657 0.21637990718895594
1077 0.7768428787833966 -1.840407429454854 -0.4550320834375233
1490 -0.006993356510761266 -1.1368047207100305 -0.544621951192872
3712 0.6496672924231807 0.9013469793807443 -0.08620954747504034
1163 -0.43418649865783987 0.13270532365978518 1.4531669485963172
2817 -0.06722068148385772 0.7486229762557833 -1.958725046441934
452 0.48218305346443374 -0.12825051264335097 -0.12492513942949353
2974 -1.5070989612648293 -0.017823149816647406 1.2132431111594568
2283 2.252723731754812 0.6412817742423317 -0.20828035274975548
3783 -1.571592783476546 0.06607202213247174 -1.0848650996943228
274 -1.1454135886387542 3.0565302954275944 -0.37919216463412314
1803 -0.7079099577747568 -1.4399752582660081 -0.8169646840902413
1182 -0.11876130283943269 -2.154005432355038 0.577028638093604
1227 1.4343444361094337 -0.5146729255022996 -0.4742149305034209
2305 0.13801151208039272 1.5934546652907524 0.30346279950285965
211 0.913012890406324 -0.6774070063051028 0.28291597320807127
3471 -0.9023876517382118 0.3565817805617649 -2.035836384406921
2686 -0.11683909399429294 0.3203555134740814 -0.3327864114902329
127 -0.9847620668224208 -0.7233461996058964 1.5109490105991943
3552 0.50132265731849 -0.4927450326421356 -0.4282940834550482
2089 -0.6365631067034045 0.5472240406568861 -0.7170609151272144
3137 -0.31728585007120186 -0.39818538585360413 -0.1473145688631786
23 -0.7700863752322699 0.13519588010799322 2.0384678953754225
3373 0.23981898445234975 1.6373390393007694 -1.4249798304166696
2525 -1.2815086628668366 1.1537938177644074 0.6326335251268878
3776 -1.0942071843610084 -1.279675278903388 0.4066030531853799
3168 1.9436795218945337 0.7034204017567476 -1.2049197856198652
1606 0.45288911674093135 -0.8273042286425394 -0.7413334412382251
1046 -0.2640508873867151 0.6730223421770903 0.9339510093174173
909 -0.7913015871719727 -0.15608358002221545 0.933812615363401
3899 0.25156629433126537 1.525001762196854 -1.5413077883000181
3531 0.45206904737420844 0.09017038721618269 -0.3353207773502408
787 0.24242256295238168 -1.7485791236352528 0.697339651201152
47 -0.05589305844050431 -1.250288558653001 -0.6886268343225418
404 -0.062386331575932624 -0.30017239116643724 0.29877957870939514
3251 -3.5038591251688436 0.7058425266307627 -1.4000623092340423
705 0.8860593791237639 -0.8663651808225921 1.1791057923460506
2356 0.8773239522970322 -0.49525528580131506 1.3045758184602936
984 0.055396459735772126 -1.6965648727121936 0.5472298937643361
3237 0.43057246900084456 0.9495719013501744 -1.1730159376961642
2478 0.09920351424548356 -2.990109426959876 0.28215676363693154
1276 -1.0465367236747298 -0.2276543644294264 -0.37810803675527555
3183 0.663148868805896 -0.14553162228890026 0.1356945732224998
3587 -0.48656794439108586 -0.9328875735131961 -0.5955092471812188
3142 1.5268930023264606 -0.48121123275756644 0.7478714156217826
1060 -0.6349336069916446 0.7046924271419321 0.1115883103840994
578 0.5245936840416902 0.10718426936336788 1.2106742068807852
1667 0.19724934645478995 -0.010684370953493066 0.09252023763607503
1564 -0.947733776911275 0.8122154541739603 -0.1566189232082133
1087 -0.40682902402055066 -0.06549448389217709 -1.4516009652218134
1442 -1.446515153294956 -1.1338519870690886 0.38441438630299674
1102 -0.9132392850257047 -0.9198407220683393 -0.12306085430359792
3338 1.171879077593795 -0.2647617907121285 -1.108639867506112
3859 -0.7541828432214079 0.20227368021044964 0.7056316704238152
707 -1.0188695726403771 1.6526903205358592 -1.824344189195939
807 -0.19643090052363604 -0.1393897471328466 -0.5952383354035988
1757 -1.7002180217751794 1.9240721347916543 -0.5382320762900813
2301 -0.06322323512457037 0.06790758427950565 0.11331804133614627
980 0.9877104010338136 0.12034125167719352 0.4830435565673075
3731 0.32923154778977504 0.6372481136211725 -0.695428646269912
1151 0.30860562685205795 -0.00845672402030818 0.27761580997937285
1059 -0.6480779186105556 -1.7229247694266647 0.9835746380770674
2377 -0.8996206662672773 0.9368875960030562 0.04302273683563197
1969 0.6375079756170033 1.801462338218858 0.6693212803464932
3418 2.291733711573963 -0.034942208627827834 0.8758564909663873
3025 -0.6168409332256832 -0.1460698040844456 -0.21367453185680127
1878 -1.130754638053819 -2.426192029718163 -2.0320902411389214
2531 -0.5973723622663387 -0.7604988782962704 0.6235020319559831
3428 0.2526284703009534 1.9265681450679135 0.8796306762797054
3885 -1.9145818229448892 0.985069928488927 -0.5010596677272455
708 -1.2316988793158457 0.5177064937349598 -0.8811867492961838
3199 -0.12302646854334842 -1.404333072864579 -0.2887141549367398
2413 -0.024775819936314697 0.2738710255886655 -0.3692375010806981
786 0.8216432940872611 1.5529689511758722 1.4670816697836329
3087 0.14849399108059458 -0.10097993244298648 0.1467979363127035
2536 0.43426087525992346 -0.02032903902685228 0.6576033155448578
1505 -0.8055411703304598 -2.0291625152304027 0.09103547235922503
1760 -0.502994036473417 -0.626461506803937 -0.18000596238833372
2639 1.1633431122849285 0.21020583322558548 0.21904984442003345
3000 0.502033257871496 -0.20369115389570353 2.2670536999032316
1719 -1.403841137594522 -0.0676287062265286 -0.13408350787061402
3016 -0.5166286368411637 0.5651349002448248 -0.22250977984122194
1350 1.8794335097208994 -1.2457424292423762 -0.11504800843837572
2963 -1.3328904217085482 0.04980187922573102 1.1244370777439343
2454 0.09224405661829227 0.5052127596329951 0.8275355369016267
3454 0.6821623860519627 0.4479240535755753 -0.36306509241261814
1958 -0.9176080415608402 0.19773569301873084 0.10570556188110962
3754 1.65347887281052 -1.4659836986065562 0.4538049968059644
1066 0.16434736368706068 -0.4066836660998484 -0.7842523898926962
324 -1.3657420013230654 0.4982519452066373 1.8439883364395362
3206 -0.049511708976091175 0.197009296790065 -3.570820080536052
49 -0.34912280707973264 -1.1658082749041896 1.2335091582671331
1118 0.003975857710843617 -2.36482604089143 0.06589842944883129
1591 0.9352245016957244 1.5634080728616708 0.30111838967087773
1705 0.46424516505654456 -0.5761627975473003 1.7975009849716954
588 1.686474721640648 0.5104695202141578 -0.4778178219775401
1944 0.06114698632025145 -0.6498659641240171 -0.37544576449212785
343 -0.24517619199904456 -1.0637865158158648 1.0890456381247025
2257 1.4911956302328953 -0.337010019311421 0.4729233137166143
488 -0.20665944506905032 1.2912541230448824 0.4227836749583636
3413 0.6480369090788249 0.7866411675984464 0.32173399763821764
3848 -1.6019830001643958 -0.21041437844134972 0.3275731618684439
2949 0.37358532979003556 -0.2866342612088432 0.5979690446739491
857 -1.2894442076725081 -0.7620900099909033 0.23059250901134493
2951 1.2940164414823545 -0.2799368284484979 -0.022240353415603716
1444 0.16241314810265875 -0.698685654812216 -0.14802438099964754
2734 -1.4256011698328446 0.5316571813135023 0.8534949640963977
2418 1.576439652190558 -0.30919141206048634 1.2223516880513285
3583 0.08057174930101767 1.4365366063181013 -0.12767861425822288
3197 0.29576550648627037 0.11574516450028455 0.014150125256499368
3901 -1.5034296494826382 0.5970549155283739 0.6718226395334891
2693 2.8724238118203176 -0.7047786387278441 -0.5032744054797561
3125 -0.6069906002646852 0.602520538318141 0.29348346752599136
1475 0.4707753119947344 0.547752321607514 -1.5149698377948744
976 -1.422648143011956 -1.0971162502657348 -1.0010577228414037
2186 -0.395315610027092 0.8145396415580389 0.03707953839177999
253 -0.7339868788450016 -1.0717714860563992 0.4875366727372347
264 0.23990531927387554 0.1935146744001196 0.4313015530871255
3131 1.5369340306736088 -0.7708667163138048 -1.1852984189982656
874 -0.8267082005097964 -1.1326893623167924 0.4817476805746184
2226 0.019391449918167998 1.1802079239468033 -0.5139613987740863
2948 -0.02512084988370698 0.7346195203893371 1.03730458866268
3314 0.5420330340723115 -0.89691305274349 0.3589765854458419
2515 0.014833308152861085 -0.052405002567213074 -0.5935070815371815
3265 0.5746317466544825 -2.2235006246187736 0.5646355811839269
3509 1.090811228484147 1.3139761951434143 1.1194650253644431
3757 -0.029854356888189475 -0.42375418339948023 1.3482468037528135
957 -1.4226941007704037 0.4210702067269732 -1.4047652087758533
3163 0.3741587192990126 0.09705344560009552 -2.4452884401961605
1531 -0.39976411927202704 -1.143871725778278 -0.3455269092536503
1346 0.15802816081235713 -1.8141839166431943 0.20732168684542543
3882 1.0242749758549548 0.6238813109831454 0.18733276185757283
2960 0.11021195427149558 0.18629482185347443 0.0073296931938752604
1798 0.09317190878681478 0.6858453160791177 -1.0676752834652674
3914 -0.15201132479324841 -1.2965881057512925 1.0377385956751637
3545 -1.127165780852559 1.0742928085519794 -0.5834108414315349
1507 -0.9450783271094704 0.0008563399607939632 0.5945295249987518
2235 0.675947106089524 1.2546303256745477 0.42990556180055045
1980 -1.0640650517689256 1.3314825649654047 0.6126457540583559
3449 -0.5836523105514201 0.44865817804559016 -0.8520294753920309
650 0.5469338847586389 -0.5361706658261076 -0.8235614669780095
2760 0.5975987723806723 0.4004737048196638 0.32986420982459264
2331 -0.1432249958920578 -1.388369782617171 0.6243530765240418
3056 -1.6139080501929723 1.2176917612558824 1.3310390339615021
3015 -0.13604938294265545 0.33025697092175127 -0.8800441172257051
3891 0.7176513322258927 -0.4586389578340061 0.05325626967359452
2870 -0.2589575262053541 0.6295284764203162 -0.6283485376145747
2188 -1.4067395968884593 1.18272806315819 -0.44180578723726194
1065 -1.9386619879434654 -1.1069641752987218 -0.9830942370290138
882 0.966879733135498 2.429505742970945 -0.5469647239774053
2551 -1.48752647011003 -2.421761557773362 0.3429016903861186
3298 -1.0404459752254487 -0.4443514071116436 0.4297308831390396
1033 1.4108922798609262 -1.261528993769723 0.7825302465581456
388 0.18867077679553093 -0.24517750662698337 1.568311343720966
156 0.222841964981578 -1.4259462691558127 0.3198891355858417
3151 1.5924116536767896 -2.0312023183715047 0.5135987902831387
3196 1.7796030057323957 -0.43555980825591906 -0.34089927666523434
671 0.2687142313941532 -0.10960630427813539 0.5475946072125012
3874 0.35896414241202557 -0.9603378750462589 -0.8000684940945846
3252 0.5628282356728421 -0.56818566242997 -1.805207841845782
3090 -0.5190958577213862 0.7197513509248067 -0.04111294082925549
2052 -1.0471027016872485 -0.46474739499181417 -0.760137248486909
2214 -0.20723434200760973 0.32802949297743855 0.432119605001621
656 0.6691356693923589 0.25533948514497096 0.06127320600364254
1615 -0.5980769965773912 -0.0227400882917006 0.3496509557362998
777 -1.011176045644891 -0.048739278871486776 -0.07048204152493012
2535 -0.9967611096319464 0.08927035043778025 0.26960518765289426
1511 1.1761070834033047 0.38591173024836484 -0.6994177041076562
1654 -0.43247633696544796 -1.1701868193156888 0.3572796083744737
6 2.3692366406966583 -1.6498856511978668 0.9299099996270833
2298 1.5358275258765441 0.19226040018236215 -1.8943208813224905
155 -0.7593849092786901 -0.011193809005990287 0.1823569805249088
3810 0.7037693923979278 -2.7530931562279224 0.7716713967487389
3008 1.4922911691007952 0.761395744490823 -1.212051878902211
1388 1.176737191201818 0.2460379484337501 0.2942802819475181
164 -1.1224999014027466 0.7034794926659522 -1.0251691356978876
949 0.8380391979019467 1.3906751484744102 0.38163092397728116
1857 -1.0986368964619277 0.7454867144269883 -0.799896298236201
2899 -1.7198099522245716 0.8990881400530838 -0.1265535190080343
3455 2.1460895782141103 0.8773569854764532 0.6690755097064154
1817 0.24902084521329507 0.7330801077009015 1.6910354179766875
2434 0.06728061944299338 0.08136087336174432 -0.6811041730782206
1091 -0.4200485664881077 -2.974532991152169 0.30958975241790515
2192 0.08014181992199386 -0.5114438832643505 0.5434703804540013
2198 1.103303477544301 -0.15516356138894047 0.5258494771101649
2614 1.7304357085603879 -0.6892527538292994 -0.875811084032642
1529 0.6691674180823659 -0.7481597200883754 0.3833257164930735
3751 -0.5060320924433771 0.5630459799439612 0.15435554509068375
2404 -1.3110778020721183 0.9650858401464929 1.2657264864629396
2763 -0.12097746904770702 1.0600180952197438 0.7393857129770184
3979 1.0833854528945654 -0.6669032239592336 0.6597897493116275
2673 1.0767001448551692 1.0734016502111974 -0.6656261644574735
3676 -1.3829474347549116 -1.1384184438368887 -0.15521896561078688
198 -1.3970663671487582 -0.7314473302616902 0.1668629253603442
2256 -1.0006920141769593 -0.44676228689833875 -0.6453061875263892
2469 1.324441914767527 -0.06986234541659068 0.029352481551961577
1565 0.7074382438415622 -0.8752119324955289 -0.1421742628346358
840 0.6427010017471313 0.2998411666834739 1.0479153618577732
124 0.7260822301010126 1.3547001233992513 0.9946021978591847
1472 -1.723578228003356 0.9532048342149909 0.6579849622414975
1443 0.30394971294569195 1.1680016464853233 -0.22042781223724156
2997 -1.9518538938709546 2.485526574489168 0.4414966306819703
2932 0.3957484671146111 -0.24801362332481955 -1.9894248639115977
212 -0.6331242102014049 -0.6548428128328673 0.46432093428984395
3337 -0.43555477856685576 0.05061564952114101 0.9258516911610902
1175 -1.138761612695126 -0.24583804819337635 0.05065995839400676
977 0.6867998147469191 -0.45331581550726235 0.7595656041619264
2967 -1.2515831763064484 0.7211492144667402 -0.005904372948491533
177 -0.1281523899150084 -0.4368543159291349 -1.1673136185638673
870 -1.3687561080186337 1.5508744210799048 -0.696550619474394
750 -1.5307640105936524 -0.9884590646573822 0.868870731858562
1935 -0.8560414437171218 -1.314784829880751 0.7942754944279928
119 -0.11601012431869667 -2.3543287927948526 -1.0901882128744123
1579 0.44551046199585176 -1.2517766202647276 -0.9165451189887944
3589 -0.4614263650817829 -0.6061116514409793 0.10198499838352502
1578 -1.7771801571953396 1.468535592009236 0.41192221068658774
2770 -2.175737206290945 0.042216138608653996 -0.5312844205220819
767 1.6235974840955227 -0.8499054877833605 -1.046151539231698
2327 0.8510884264960579 -0.3891327138925661 0.37477509251945784
772 0.9750316974378439 -0.4659922422043258 -0.7018208853604422
67 0.8100434704486855 -0.3740010704592922 -0.8825398342709675
1707 -0.12100777341667085 -0.6321006981756258 -0.7230209228279324
3601 -1.3122978780352386 0.0641134458258186 -0.9900281619425629
503 -0.7741397794565611 2.1341957041542874 0.293630387255023
3085 -1.089303833444952 0.9901438210379461 0.09536497471659935
3200 -0.8880692655346145 -1.0358724690415253 1.4718979881651524
491 -0.43953328207926 -1.504102799502896 1.3531318732993372
3232 0.051849780425507905 -0.4568012219113467 -0.6166511168066853
1562 -1.1785916877923752 -0.6899177504911035 -0.5941732563762185
2207 0.579088532018853 -0.4245992325441788 0.49978678310829333
1896 0.5264036859086467 0.993419878966217 -1.3189535260135716
2028 2.838052722631366 -0.19958337552337183 0.27510864565911547
2145 1.3661401315409405 -0.713891799787028 1.7792076437802138
2168 -0.047615553929713006 0.7535883767363256 -0.3322842973765944
1689 -0.0408711839858935 -1.0888654824679345 0.9561804508428541
3842 -1.60524274427899 -0.08572186898770846 2.5987084598356063
3642 0.23957749699702865 1.5751475498846639 1.3250740004052075
3376 0.3443087677960314 -1.19229798308707 0.9867962423959445
3936 0.09404918522144823 -0.3925469241180837 0.24417926459721828
769 0.45013073934815523 -0.029749191721280134 0.07680447116087734
373 -0.03741793102031812 -1.0847096878631626 0.22247676372230954
3747 -0.17901854668393502 -0.004265342489942633 -1.0871758220930223
906 -0.4345675502449201 -0.18898205207405278 1.543864305114714
3458 0.9400092886454119 0.11570894533318092 0.47921930262516116
3795 -1.527376270363245 -2.5353775358969632 -0.3954256987198293
794 0.5216278642364359 -0.6023641959576276 0.6025699451934348
3576 0.0632960051203614 0.20632760732555305 -0.2670164633842697
41 1.1793196046086274 -0.7906402525175088 0.6239295200923505
1873 0.1857701994626638 -0.8754301681357245 -1.9063399476629566
85 0.048325148040031164 -0.04779068059342113 0.7398087783376358
507 0.5156228745238863 -1.0516434293540315 -1.3547413103225021
482 0.15800994158858067 -0.331629677645126 0.4226993238390212
933 1.1636250825060062 0.02548994059563643 2.1507666993805405
3958 1.7074964105593111 -0.3493648332811901 -0.724120209208664
3240 0.7717963836127276 -0.6976614506773604 -0.37183599532585127
3501 -1.7036878016683117 -2.8340674578762672 0.573259017445024
3818 -0.1543711076936053 -0.06870392172356811 0.7828885858760075
248 -0.19845917628109155 0.11198599319102989 -0.8957683774129499
782 -0.35513619478946357 -0.35548331791321003 -0.5783144786900207
3758 -1.089817026434761 0.8716379693070306 -0.9258468501577044
3726 -0.4303023213033308 -0.7551326762265793 -0.2778221953627777
3519 0.42821969264392873 -0.29739850699783404 -0.24138197069236214
2955 -0.2028006685443404 -0.20316426686430425 -0.8698489105791579
3621 1.9491784571608866 -2.2406473839661247 -0.7092053465269089
18 1.6080141929963738 -0.28256697680660264 -0.20397345435035638
676 -1.0618542853780926 -1.0371616069771312 -1.192299973220506
2749 0.22794101644252293 -0.19856355252410424 -0.8851175587033403
3593 -0.11075718805211686 0.8641397388498007 -0.2601523137965053
2437 -1.4417049352437088 0.9166205209450765 -0.5254259054261091
3586 -2.176831639697992 0.8312104656280537 0.2470344291234425
941 1.2752873440448236 -0.3035025208699257 -1.289788914308197
2125 0.532768711925318 -0.03494287218200063 -1.301514746089972
3093 0.232684242608901 1.0802236831330736 -1.1861349896444962
3702 -0.9332967360069794 -1.8486788253684936 -0.7410205485064425
2945 1.4759327371254753 -0.07360684141364963 0.4785350834592722
2455 1.7091688570827583 -0.08144665804533444 1.1690904474721038
2155 -1.30976981067508 -0.9774264305040393 -0.4052221384553454
320 1.2676748742542705 0.7148549122488337 -1.5118928604751347
2326 0.3753660903023729 1.4877041154375288 0.8693101265698506
1209 -2.292445879484461 2.6294520469319753 0.24826560281569204
3411 0.533033014149066 0.2877085097916948 0.13814543006646685
241 -0.19137660971160975 0.5128913610531489 0.8236918119248393
1165 0.2433309920101015 0.3195906160672819 0.40007648793664835
3935 -1.183006532332057 0.5420027038345626 0.17965765593404445
2038 3.0099940710561417 0.16927341199556067 -0.04280422067595076
209 0.28615575565274787 0.31458439194302656 1.6618494618886581
466 0.7842815868361805 0.5138808885988336 -0.07982773236648967
1445 0.20097480712084284 2.0826913004183645 0.3343850440881761
350 -1.2182219470462057 -0.502435435017427 1.2349776717610883
3147 -0.6122035087895249 -0.7668603670241912 0.7815575791800426
3923 -1.330276716554014 -1.536850677706536 0.46056186944911776
3664 0.11458576288819744 -1.4687305552306968 -0.6488102512050292
1632 0.14333454807162024 0.6902629253233419 -0.33334416524260835
3708 0.10167948972849158 -0.571192169342409 0.43752700430217817
1995 0.26759829826970527 1.4414705604092684 -0.2815959329218911
3557 0.2682072157887571 1.0993741175736995 0.05405384706479108
1284 0.7369195572988189 1.1295462594805543 -0.04386361640042957
1581 -1.1968052659452133 0.195044602857388 -0.3198392683050613
1859 -0.8553841301945253 0.7207189739022788 0.17685515967346463
3667 -1.8385596476702628 -0.9982038211628264 0.8996991504706963
2422 -0.8877548049100135 1.2278819049867338 -1.0564344858446817
2751 -0.5880529076891724 1.424682954513015 0.18389916973183254
469 1.2858607791093843 0.12386179313157081 -1.014242409805461
389 -0.4711254149558517 0.6984666881362592 0.028578416727692003
2019 1.1741146202913015 0.7173884566139918 1.1892991366275776
96 0.507588302099016 -1.49990216462309 1.5552507628604593
730 0.01866757816796503 -1.7029621861041397 0.8332268984638624
665 1.1722494029899437 0.5961298095372811 1.415658538446542
668 0.26633324287175963 0.9156856538516107 -0.34279885268672405
1791 -0.560527221069044 1.348949390241662 0.08522726802794324
2380 -0.23353747985443588 -0.6598481267020856 1.0344308668226752
2511 0.3117632247797456 0.4039150701873246 -0.5140598303337622
432 0.32310061827571984 -0.451668867606584 -0.9487433088239665
163 0.8763868234342908 0.7327167066071006 -0.8904145552622257
3464 -0.7616970325906751 0.8424616529888973 0.28816130606326795
3852 1.9022642585714178 -0.5097588326380931 -0.07344395660089474
1334 -0.5401818699347788 -1.1124028516963058 -0.005153239188926722
960 0.9156171503938274 -0.9826315519744667 -0.4041867070345861
2011 0.5059783466236484 -1.4196203087060277 -1.3341860794291096
2121 2.268134567164575 -0.6925455472262182 -1.9785289323725244
181 -0.6517848530619159 -1.8431287072340528 -1.039299258975671
914 1.185790779393081 0.7649503208082941 -0.6517106401236473
395 0.6992430831887125 -0.4921881947262331 -0.10921083510780366
174 -2.8891951539472815 -0.8809799294908485 -0.7876869889362829
2222 0.26097500822065633 1.3469567138869496 0.5532316229821646
3408 -0.5278548479528893 0.8849969322590809 0.6610494078555491
2514 0.48107805550419225 -0.6599604284426334 -0.8167850983088532
1504 0.07071363165482343 0.7948884346607072 -0.13151666272679363
2890 -1.2361070045609415 -0.559572039925979 -1.1244488246265743
3750 0.4662375284431868 0.3140018442160568 0.02186028175327514
2953 0.5747967062897056 0.579675863005514 -1.5246469055487122
1748 -0.7072766052406252 0.0821243280204338 0.28600004932567175
2473 0.7157624609174085 -0.09286299445691573 -0.5099654633606258
714 1.0624715750763118 -2.1001484640693784 -0.06524837212377314
623 1.382595281054077 1.5555944854197625 -0.45237046319638924
28 0.49806052719116634 -1.3710852662936837 1.8042477287646599
3803 -0.4440037005314278 1.1336816826477334 0.34972860568858427
1850 -0.11622227245889331 -1.1577940420317472 1.1255743994252643
3404 1.0488847673197963 -1.1417700377279303 -0.39073132271590016
3626 0.5211513525386873 -1.5269781005826186 0.9682965013170058
2365 0.6957268149232315 -0.23077739711574055 -0.09348072325430326
2436 0.632553782031259 -2.709508123232651 0.2928588067516374
459 1.7740477498489058 0.9720086789366167 -0.21281557547839727
843 -0.1530631118922712 -0.6866758025686316 -0.798133914512812
1216 -1.1395430011635068 0.7236633950559774 0.17296563573642998
2803 -0.20593373666481235 -0.8769572662808752 -1.5967354036297892
1473 2.0340751432734736 0.2909414065769708 0.03910112082379432
2633 0.014755191821822864 1.3487752845414405 -2.039676556959701
2864 0.10269757842576548 -0.3338136383081282 0.6038174061623471
3794 -0.8336319713571735 -1.6190129668684072 1.202377858435921
2111 0.005346949171892367 0.5576360472115128 0.6147545573370561
1342 -0.03515611059148022 1.304408661185157 -0.4805092533186925
1401 0.0990005579065521 0.6003198399538552 -0.5973034580831977
3453 0.29927606434508763 -0.15620296924137037 -1.8206321009166524
2091 -0.2633741595994195 0.07572330346724136 -1.272478618666959
2431 -1.9185547820020565 0.2067273457503306 -0.3834370298674982
1863 -0.5860992702473551 1.149175415096616 0.9472040052178944
797 -1.7542912743541805 -0.06782241767852766 1.1364997230270455
406 1.5353308184104109 -0.9150345696515346 -0.321578067813324
1120 0.6062429979341806 -0.9256923771207529 -0.5933935543664455
3083 -2.008897741927438 -1.5032623673242154 -0.04813225327960376
128 0.3864710020643929 0.4609818939367129 -0.29459262424752186
186 1.4580266718350796 1.251371766030107 -1.0051452875585822
589 -1.7895929264793848 -0.36208454094375847 -1.278494116778815
425 0.4827599469410119 -0.14180577068484113 -1.492042341118923
150 -1.3573480611732867 0.5549602386161396 -1.7134315899747308
3225 0.06675707656545471 1.035488788124186 -0.138311126763177
1362 1.686975404720262 0.12789763100129917 0.6790275430329964
1796 -1.8248502133457196 0.3342226781455758 -0.10957082815316369
1594 1.041623601097203 -0.23589585348996261 1.0787447169839615
2033 -1.7683861759856616 0.09967191293225984 0.5607650780584582
1011 1.275491417088812 -0.012789443887610658 0.7649805829669806
1313 -0.1312644705243515 0.5364432626522664 0.0457200654498413
1799 -0.02454277204234126 0.6249131749651468 -1.7252805917228013
846 -2.169670115952603 -0.07444514769827697 0.9929255509120324
2620 0.311398614307572 -0.16852222761825683 0.9912002858085593
2996 -0.6628121104919974 -1.716293028246212 0.6668809089703024
2484 0.400362221927501 1.293035280564649 0.7483155157933945
3985 1.0748986197142902 1.353957636109645 -0.41092330934595794
2759 -1.2081836444939074 0.8823005490595868 0.029736098029884042
3469 0.38259739966466105 1.1423743073398696 -0.6657827976350603
3359 -0.09177552971598402 0.03290601479684707 1.3828070177333047
3858 -0.8008523496979651 -0.1183181896633793 0.7377771354555478
3284 0.015025324571766297 0.6893359896169302 0.8147954466925785
151 2.0115876900938394 -0.6644366809416571 -0.42936846843372173
2087 -0.27447980792640275 -0.9717514287548474 -1.0454757364360099
3392 -1.5627857087694748 0.36506241411848633 -0.4509498360877624
997 -1.018175840731533 -0.7248158619946626 3.023783172060814
424 0.6435685464463614 1.4123634275701138 -0.5605494176939251
1497 0.1207497990817819 0.1712402415061263 0.24988982376279922
1900 -0.488756302117673 -0.1559814534095489 0.6349996327400188
2728 -0.5780967730359997 -0.9406942620638395 -1.432797774483631
2263 0.33988215437513586 0.2346650019127713 -0.5852996350281809
3598 2.034081379618171 -1.1310202563720633 -1.204422963627795
2604 -0.20195175758941272 0.22346231198684416 0.1008037135825117
1085 -0.11308333297256751 1.54757613355326 0.10885713539150398
1840 1.021243457409534 -0.38637823899072954 1.680370600670477
1814 0.7995474827134188 0.44326434595003883 0.8939375389356545
3639 0.5280671040105225 -0.3451206891258835 -0.8095146542721996
1317 -0.5194633656301932 0.580511033866095 1.2010600693509523
776 -0.6415343466658022 -0.3379458580461538 0.5488539317403687
1884 0.7340514306042278 0.9267779458137622 0.6170582076185989
1955 1.4182868828788489 0.9055959521327592 -0.3853179498686724
1037 0.9267062137848496 1.6824762401360438 0.7524050298525428
38 -0.23548318152922873 0.11122628484718101 -0.5897311296265928
1425 0.8755786037968204 -1.553516226934222 0.010845571692224469
3426 0.12319445221853126 0.6503312165501408 0.5494515553121685
142 1.1562734211158572 0.28026659476794646 0.3702380619486455
3456 0.31459581142866955 0.20100277160921343 1.0620906447414775
10 -0.8653979579681349 -1.205590920156121 -1.2879969787789158
2711 0.15841020178683976 2.148063639046097 -0.03287394421529267
596 1.0769609419990036 1.4406426106564927 -0.9283337914533208
2548 -1.901733107884671 0.2376633432700936 -0.44232596752752085
3520 1.2346193081225967 -0.5023337255615388 0.2629432858549233
2559 1.1792093416601899 0.2174042097776986 -0.4410906916975592
2303 1.6790153876407652 0.6773207654698555 1.3658565356061052
1913 -0.3599706877993739 -1.4263170629599702 -0.973299323891498
3248 -0.40958321833226613 -1.2773306093951544 -0.3811280970204699
3425 0.17956356143154067 -0.3805057579346298 0.2783261438587178
2119 0.5820386360332529 0.3481348352430855 0.5279013968364908
2237 -0.030840605791613653 -1.2590403857140595 -0.45952865330958065
35 1.0069626970325312 -0.48209871115034203 -0.3017590803610522
3788 -0.33629208630773866 0.3864760924573316 1.5229227244818282
1183 -0.4424191139453382 0.14277443136279777 2.143838295037089
330 -0.2964249539342423 -1.1668073156036856 -1.0629563028560134
3596 2.8341202014672384 0.6938478949090224 -0.5439832309191487
715 0.9856269103541622 1.1974715998076142 1.7619336228984648
3044 -0.09662705685283117 0.37015434038621453 0.2735712395318787
3817 1.2353145598439241 0.3172054840168033 -1.836128349089603
545 0.45680723047718136 3.1316644850714597 -2.3379195132951702
1383 0.5636892164226778 -1.310451520186987 1.327690490148326
56 0.3900504769637256 0.38979966753086803 -0.254884267899566
3623 -0.12508643852455392 2.618639180754306 0.11212149483424953
1635 0.6143682992828683 0.01914039516609112 -1.2530600861101246
2990 0.40738367588869734 -0.4666903115134415 -0.02776581885319373
1685 1.4937497990274258 0.637382335759645 0.7626129137052808
2058 -1.2355390661250407 0.41396309051511404 0.814034260225793
3071 0.20844609717859297 -0.07638399523677165 1.1442983106530829
2211 -0.6184718803826694 0.9505341779629886 0.04549173609118766
2717 -1.738280314759914 0.8401837552337311 -1.1624198009172366
1450 0.5783889962324714 -0.8666782613515658 -0.12584653666405252
3383 0.7553502698233748 0.6790146552746056 -0.5882526576822096
3755 -0.08748918062397261 0.8305619208489117 -0.7483934681192478
1838 -0.3158598946987294 0.048439644010883166 -1.3115844208134648
3964 -1.4424750799557329 -0.5357549341817215 0.7255636816937643
1377 1.078582332891731 -0.39018203086281933 -0.6480765781768693
1598 0.4520891785475015 -0.816110211582106 1.8029910178806692
500 -0.7635622483209299 -0.23374895037373303 -0.5324580675011953
48 0.3157599651430797 -1.0307208291906786 -1.5941625597930351
3625 -0.43742397960458074 -1.2941885995690756 0.7969456996143843
3618 0.08848541442920822 0.49252687444010423 0.24378840035352356
3175 -0.5205406943988232 -0.33996180088662437 -1.5609578072289652
975 -1.6514645309448965 -2.344431226026958 0.13095872807764225
313 -0.18543880543252728 -0.7135357362105607 -1.2108955973976423
2758 0.3160555408140602 1.61636593713894 0.3107285705626605
108 0.8374554266090384 0.8006745902983607 -0.10271388159126404
3209 -0.9018026986069659 -0.347835989662119 1.451775235619279
2985 -0.4029869347053789 0.3344143140877915 -1.088394584627913
1378 0.6586419632611034 -0.4485275467758399 0.4276830638463618
3989 1.435771011216648 0.7587803119272383 -0.591083710938886
2937 -0.8689578304846527 1.0924109781846314 0.6378393874829744
2597 -0.8418356586539306 -0.765207957495491 -0.2813538408879262
204 -0.19388878558572345 -1.032330329239174 -0.9767815611163612
1141 -2.299370270268674 -0.2930811685367532 -0.010510639662411912
2342 -0.7532938986594976 -0.3041445310726081 -0.48802168617260766
2302 -0.5829601652196125 1.3603373224064872 1.4682587061105856
736 1.5807358932097704 0.16503567444803766 -0.5362570773163869
2107 0.5619163445282207 -0.6012530436127682 2.2598831508469934
2034 2.1073571444264823 1.8541645317901625 0.20482044182023462
1750 0.7987022967225863 0.26031398464702715 -1.1336777647742167
1924 2.5749812923712705 -0.2996715424803126 0.08345927413082115
1386 0.5138642105559121 1.2174617177972233 0.9026301608146596
3836 0.4245332537908101 -1.189192660097889 1.2123940710178565
2554 -0.4553497272756811 -0.4707878635091243 3.6515582903311863
2667 -1.405162592048764 -0.4765639168976322 0.4593615615091536
64 -1.1419324515099913 0.8618696564050471 1.06507623038143
2567 1.1009420344954621 -1.7226289381235624 0.09274875662597255
504 -2.631123716342795 2.1083383492203316 0.380410983715603
2000 0.35976075812623004 1.1137764298997466 -0.030519897021379642
295 -0.5947975892106577 0.394293233961151 0.2534214495633562
1195 -1.604629975650297 -0.17301731161736053 1.1628126766647198
1675 0.9233438083597274 0.345771039380459 -1.1448967772886673
1032 -1.97721407632837 -0.9270096109395345 0.09873380893809897
2255 -1.0448253996048549 0.2310668422381747 0.8765862150200738
2359 -2.5929360257598093 -2.3470910150769515 -0.6947182512738276
1217 2.0129362701391913 -0.19895884417245718 -0.5310768298490149
992 0.7783785297985638 0.8776780830266543 -1.0913221589869746
44 -0.7613930153518819 0.15583199632116876 1.4416335583408095
2624 1.3160040968408007 -1.3248026816130014 -0.238401295573136
433 -1.914052201215795 0.25020803965516264 -1.612530438493504
3516 -0.5342774195076744 -1.1162937607887211 -0.6513842808962278
2395 -1.9425865110037355 -0.6021460403812463 0.44647235093042253
979 -0.39664720658658026 0.5582148808488736 -1.594119066191061
558 -0.47599911668948575 -1.1710032928715606 -0.556079187155883
1628 -0.6813224707492874 -0.936065806761353 1.4207246995570995
3313 1.6125668220087235 -0.1528994493997912 -0.49411251863459593
3595 -0.5402604500820535 0.35948166829439976 -0.9558630431833751
3926 0.6621267444335673 -1.5823209865982593 0.5195351873414882
2152 -0.4204311219946511 1.1826634194711805 0.8143778976649279
3889 -0.7599472468433952 -0.8418207309080367 1.3181839346264663
2969 0.06342035755940617 0.6065117007594982 0.44666505980630844
2325 0.995868210110789 -2.148008995931783 -0.8288125730426721
116 0.13257173753414395 0.11810683976606552 1.782279335591717
2988 0.1659751088021061 -1.2258871386676893 1.4346939763003344
1241 -0.4029990224383137 0.34173904656826504 -1.3713366627790884
311 0.2757555090750524 -0.6582811536402073 -0.281531168238494
2141 1.5299609380079149 0.7032024529381267 -2.1378489866736525
996 0.20027515680195954 -0.708214900728446 -1.0808864737898873
2212 0.4447209179263214 -0.727113030515978 -0.15102359573180466
1677 -1.3437172673859528 -0.04454072521113043 0.7837669136769803
3867 0.6822708979046201 -0.8768712537964091 -0.3163930877452728
3553 -1.0255304487668115 -1.7093185524525425 0.9114458535279998
1420 -0.48362549681679334 0.8216093056893811 1.698411877421976
2552 -2.8394767094022977 0.5814382035935753 -1.0432642813733233
3106 -1.5443710314039676 -0.5663993121273254 -1.143169289763222
2847 0.21145119816570088 1.002544799176981 -0.5473995599459878
3465 1.3303170023561002 -0.18678242935214537 0.059415055959163646
2118 -1.4459686679460837 0.24351253080591123 -0.4257561388071741
2294 -1.5995784310410122 1.0595573962693212 1.0175504906282344
3701 0.8443705173362043 0.19736878512000328 -1.0468193884578822
2481 -0.5971318628342241 -0.20656225642716938 -0.7470288626163457
2891 0.676176467306862 -0.5410200493807943 2.210002280889476
1250 -0.6853727934568011 0.6816881814151935 -0.03599810816772035
3076 1.3226123553219875 -0.3943252992168871 0.9533734775863117
417 -0.7682402627047108 -0.13993884010628999 1.7183345742123037
3715 -0.7856322641501653 1.4300980070329126 -0.3644824423819164
2017 0.5541144552811356 0.3443807623291231 1.7553067243131795
2332 -0.31345018777560335 -0.33117196559031836 -1.0161567570790246
99 -0.5298714306293595 -0.22755656708307068 0.3399116050420806
3024 0.8045111221557011 0.318746414514341 0.7083782187051275
2704 0.4516919189275754 0.15736868507469123 -0.10933478870258775
1738 -1.9297277809413436 -1.529621453482893 -0.16597304277758823
813 -0.7562069155696839 -0.14728348844406045 0.2065101361865192
2068 -1.9668498864798059 0.33922775519819554 -0.027419145672343707
2718 -1.477192884710272 -0.881910913637258 1.0034041604536403
2931 0.10688922585119255 0.614479315168038 -0.985176490614506
2209 -0.16624963954306726 -0.07467768883053155 -0.883241365359731
464 -0.5810230702918567 0.6253344770694783 0.26832801298189707
2825 -1.064827704555697 0.48712359248464865 -0.38036717310900553
57 -1.6473427697653402 1.9718027405312826 0.7245604501262353
597 2.004480287044755 -0.4032735917694163 0.054256551770978365
299 1.0161873609222056 -0.19725523358015404 -0.7093957776821462
3211 2.1805208982641804 -1.4861583463558776 -0.2368870906693576
853 -1.545738965278123 1.0446034412836462 -1.8493687224984945
2084 -0.23460651553398837 -0.1767078558597995 1.0241050205095463
2433 0.11036874831594475 2.1871466861502404 -0.17176887933750876
2681 -0.33674356208271516 -0.8139734342403108 1.5841371147148238
2450 -0.4653530400667131 -1.0703402001042839 -1.3799477212480653
951 -0.516113511038439 0.3099096367367056 -0.5899271565379608
129 -0.7635924083750556 0.18843346402439912 0.6961874007789086
735 -0.8370823763112938 -0.8572836012433459 0.11034328308988589
731 0.1482232679848863 0.5004588427847337 0.6658568164490198
1314 -1.6797785961644798 0.6473478798070981 -0.30172060271500023
539 -0.19025248033457576 -0.6608206082425703 -0.17049481769662914
2680 0.5159660621837792 1.2408338120745925 -0.41911385188891936
1907 -0.49229570439594955 -1.2315123597576176 -2.5810170226853897
2655 -1.1558407356166096 0.856109953051367 -0.4872148637266793
2464 0.4905095582548197 -0.2138482874018286 1.4357207615171623
1848 -1.3108293321411306 0.18931350708814892 0.9985971720899041
2658 -1.5646605116144339 0.8311273047145261 -1.0183495725801754
461 0.1127310480420998 -0.38024341649204874 -0.5850189507014254
2458 -1.8858481830497988 -1.8247676373656987 0.12675484021518357
2416 -0.5276093274859516 0.4925227642242513 -1.6908888794085861
1908 -0.170782202087166 -2.112687369051192 0.3505451286003497
52 0.40262509916823475 1.486741360623527 0.2303907046950071
1552 -0.40156019483828786 -0.20043051185477823 0.07233917030187043
563 -1.0279171936619182 -1.0605758605493842 1.5037856044080495
1166 1.6148022499300005 -1.4370965537300608 -0.4428554729744374
1580 1.7559089767936658 0.011560019112415354 -1.5164130584149913
2001 -0.22221925293361758 -0.03980209646253424 -0.9199372644319203
465 -0.77227743864163 1.768343336996306 2.4194329154574543
670 0.11003990937260281 1.1056129029244528 0.4041888797479228
955 0.035662392415267384 -0.8349188329076916 1.5493421943340757
1937 -0.6072085223191617 -0.5026379206769197 -0.42082076200459656
220 0.42544229755896923 -1.1670231166317406 -0.6283384732498746
3171 1.6254746187509597 1.0846912161234825 0.296323389514861
673 0.6769299335847571 1.3978258877907332 2.1229381203862743
1259 0.7440608398625332 1.0927085863916144 0.3522193534138424
2184 1.0038673533681046 -2.049136788469045 -2.279045920780436
512 0.6261521387580141 -0.014727726086480803 0.7891838827290385
1609 -1.1428144052447111 -1.6018717300574405 1.0201396997124348
3286 -0.43759581992127833 -1.0745488987818612 -0.8246196833640043
2735 0.6336670097508705 -0.7747397925469527 1.4730531574496846
1331 -1.251376624127691 0.059967841801664624 -0.0270403467110092
902 0.7388271208881005 -0.6352508117329337 -0.29354008084791355
2230 0.8223037990029783 -0.17479738470064576 0.25689254775928533
2841 -1.8282550438714114 -0.876669607868025 1.5722749772788163
1655 -0.29113812932781713 0.015203272358362808 -2.905249404746237
3682 0.03985442147477209 0.8365759362578484 -1.117436383413008
3482 -0.6499991999896393 0.831924612855053 2.1360261751130905
1597 -0.37500931097417034 0.3658303505017585 0.12326561202019669
2135 -0.08541467325131728 0.39172111460219017 2.991770452290803
51 -0.33330761167664746 -2.261034994576463 -0.4038125415205527
1665 1.218290266865224 1.266497705482624 -0.30688919051502467
3748 -1.2553907186303739 0.27269053128127096 -0.8567570939986145
2916 2.6976167393681814 -1.4843913467046028 0.6033605656357164
1570 -1.2020455514984354 0.8902593093089949 -1.293989492093059
126 -1.7403731963711364 0.7709422539585473 0.08879861516139774
560 -0.7202600619594902 0.006527952721460394 0.5487887417068125
2061 -1.3007227393636975 0.6022077276600792 0.8959925798635596
1306 -0.6924950799440449 0.18926884125341198 -0.4090426368282947
3064 1.1580372822159553 -0.4884724345701927 1.7113365730942722
2003 -0.4871827779185176 0.2768194061550634 0.9135270543090306
1714 0.30433928846236324 -0.9863302139390536 1.7201738647756175
3020 0.12843337525563667 1.3553609373214621 -0.7193510413979018
3884 0.4840949858805459 0.14826941001553756 0.5959410790543762
2732 0.9542053917615319 -1.8469182437291958 2.413474666596366
3236 -0.8459900456817044 0.3487769548781474 0.623963680700765
3544 -0.40152649797512496 -0.2069194240687819 -0.22003166348853448
2991 1.2026936655334834 -0.1261206353485105 2.550374805281301
2815 -0.5601679524942688 -0.5540042296791414 0.06833807015978065
3005 -1.3354753218240822 1.4933502955754971 0.34646289078584724
2218 -0.27751643857214797 -0.7704383747536901 -0.6142000276069907
2754 0.7453418454483611 -0.36194060241684445 0.25192990549009203
1931 0.9076272413338955 0.993803748241714 0.6814866918195753
1200 -0.22513384542647252 -1.1150206632036923 -0.23079609045787833
1036 0.05175092423403378 0.45304845233559865 0.24892262997624262
2021 -0.1966256556283155 0.40638554470149235 0.15640144286807403
408 1.4820884368652916 1.9356136782464923 0.18863992398747903
3846 -1.4035576489162995 -0.713570192289321 0.4504876415668859
1462 -0.7248184835611334 -0.7738277641315102 0.1519035127788851
3939 0.06545915664689649 -1.7011875969266632 -0.4588598137867737
3713 0.051350831779608114 -0.9726379824160629 0.4405700994998341
495 0.7557889077902887 -0.5183421183947247 -2.367432626543797
3644 -0.39800829741456695 0.9020632356449274 -0.8806223101959182
2056 1.1021201234936246 -0.945437598193055 -0.8354778725318487
480 1.4344733593487382 -0.3901359745169069 1.224639756231229
961 -0.7664789758365539 -0.9203222940959975 -1.1784806761684279
3994 1.3798067546366934 -1.8373606015008324 0.711564226974797
3477 0.666228240437221 -0.3979109014005721 -2.7104488853437316
925 0.7121815719781373 -0.22489467346770836 -1.963054984476408
2347 0.3757594627426918 -0.22387834540139975 -1.0045599074654863
1744 -0.9242907425254453 0.1661161244028336 0.997594564393148
1293 -2.0897029702272727 -1.5564718199869358 1.3080347050660015
3153 -1.8716082192020824 -0.9358699523561572 0.809819221531221
1922 0.04293079944933236 -1.1476095526078414 1.0493458718348632
1970 0.6558972291728838 -0.22726506548764294 -0.04849884225439948
2372 -2.648103443266117 0.8506548924073595 -1.4520627051107584
2219 1.5324706582254735 -1.6761250646706396 0.660976409115742
3992 0.5126377577813322 2.4405850077527145 -0.9149954863423234
2371 -0.30300676220066963 -0.27836780179633486 -0.22193079006783692
2530 0.7185979483658379 0.7063035566069716 0.06412968448382017
3709 1.3787385476150542 0.8723092766061875 2.182711095991855
2050 -0.4342544704756947 0.35491427093357286 1.8107433155434596
3780 0.22302635799701503 0.08768482968907229 -1.1182899428138549
3120 -1.555957523412392 -0.5190092425151265 0.8328950537170301
1595 0.3697822662986406 0.8286876264504542 -0.5923402549288218
3809 2.2319138932659617 1.705703037285217 1.8400369300043071
2379 0.4650200668486242 1.5684306674678132 -0.8707319409508082
784 1.0124610019247235 0.5969279014874368 -0.5458383185335192
2883 -0.7696527390573275 -0.7084057568540126 -0.24765911881774563
774 0.32944662818958076 0.3937118353546399 -0.6574754509588316
1244 -0.8592630479362534 1.2167508897753703 -2.1917459251911837
3915 0.5229573193144839 -1.104134349663971 0.7407797895788295
2408 -1.1176187856986552 0.5199654967177276 -0.07389614739039864
1020 -0.8527466385561987 -0.2936430416940559 -0.8623353728396175
2270 0.10227655579095908 -0.6803929429589839 0.46834296752298277
2466 0.585313116277675 0.9716067693857656 -0.30889051427959324
3674 -1.2269630351589706 -0.106508038676359 0.6393989020674624
2553 -1.0725841634899833 -0.1339020818713717 -0.6647416157958543
1455 -0.37554894606108064 0.013290614631386973 0.30237112705900715
3306 -0.4077474757017062 0.6316382183155324 -0.6611296673058494
3126 -0.13139068138862808 0.9410043253318338 0.7873744983830943
2467 1.656830522397575 0.2672285376289677 0.5345027858547213
1669 -0.2908696199234336 0.7725372029504789 -2.699554461161541
2071 -0.2630146009264154 0.7884155600397974 1.724529945762608
293 -0.947045915767258 0.6891742889146066 -1.1873889209340736
1977 0.9740724596162328 1.3982497074898328 -1.5682334445768171
1233 0.7405749695943995 0.022933628390277207 -0.4098150402967082
815 0.016526218852458186 -0.14636315543407952 0.32373120195409144
405 0.7830876851661208 2.3319236607140974 -1.2796030586241303
1518 0.09314219959572956 0.6856436276318228 -0.6145190451679055
2103 -1.219270562159871 -1.1810596829170266 -1.188130727374388
903 -0.2859435337223148 0.019064139399608007 -0.7877183234487216
1585 -0.7481186672940181 0.989333396399234 -1.2448030957662206
3029 0.5169273393764714 0.622501583902265 0.02010125488831276
2195 2.668349259442107 -0.5130439968638664 -0.8769316312393629
1145 -1.8831951128183428 0.03362915989639541 1.5728554925634246
246 -0.9263558935189962 0.768346340628176 -1.14068515353132
1801 0.006882879408106567 0.8015323397373868 -1.41764853186512
3159 0.07175352304211854 1.7639166991670445 0.1716644387388888
103 -0.03110846136257417 1.3208338153945984 -0.9233123902077572
1415 0.533493021257358 1.2988629893819983 -0.9788994895549377
3241 -0.3400229975984168 -0.09541952594893306 0.5063910842617287
372 -1.4878149896593158 0.2727748972816383 -0.9165655261735208
2814 1.1655218221744854 -1.266119479077881 -0.4660987748442192
826 1.8968730001410081 -1.1006745453439135 0.15294810219841445
2865 -1.7593879668192833 -0.9630738483560537 -0.07975555579153523
3921 0.12490111636012206 -1.243248372844924 0.1559319523440898
1229 1.3824494224701647 -1.4638094660330672 0.33362554057750604
415 -1.2072967549004598 1.6969547081168739 1.1371416840137325
2343 2.3794447076552787 0.8619151032892863 -1.3353019187020827
3483 0.7439981837969303 -0.15003905223248862 -1.427344966853615
698 -0.44575741359539944 -1.6765304563215144 -0.23683471906814896
1503 0.3363258956031194 0.6350196475180436 0.6903440638232924
2768 0.4665135264139386 0.708276585574442 -0.5005251399968657
2009 0.9487259096361268 -1.1164035149114278 -0.1448075484987765
3055 0.8748150919152626 0.7824056982029932 0.37118200536041224
2173 -0.5655677213630838 -0.9557879616589477 0.10383726591860688
1252 0.9576480936888567 1.2468412032379588 1.5203942733952591
59 -0.6685255592384488 0.2594553545082327 1.8294926927761779
2740 1.3960219786410957 -0.390830567965702 -2.1936045196872156
191 -0.976688352683276 -0.43081116022855126 -1.3042587441235023
3395 0.47936298766874075 0.5469564037111398 0.11906217087401115
551 -0.010717076164540422 -0.06384328517954584 -0.06088809596025316
2499 0.0422042045832456 0.4621977601228956 0.23635888471665883
817 0.1544834259917161 -0.7786541028097409 0.49918173214192696
1543 -2.2407404018554216 0.20588652125210022 0.5733527340519592
535 0.6658028919635842 -0.20119882475226206 -1.5250806450907488
3849 -0.8776860244797169 -0.8378552382770607 0.13953551604767628
2385 0.3314311923023499 -1.245923850005944 0.2154726539726304
3268 -1.628369703527132 -0.7787460504452939 1.0580125045866389
1373 1.2830779655366757 0.7826277694608977 -0.5353321331168002
2956 -0.47754507067851265 0.09745349647711854 -0.19736917088527242
1722 1.6066903097746759 -0.19463969882175364 -1.6971239624501882
3474 -0.7101486949337974 -1.7970427032302658 0.34047488602133763
2328 1.4125778519353038 0.4851322889790947 0.005867814479263279
1137 -1.0932388285831396 -0.6036630030365776 -0.11114158526642126
1938 1.8087108827887426 -0.6756858092764526 -0.07912433026187986
2172 -1.5948348244455266 0.5855434190229717 -0.34298486297373476
345 0.091166983757888 0.41309240991728163 1.0556394613478908
1246 0.8803769500647631 0.2570652251261296 0.2728817302992993
2432 0.21636193501945694 0.4887102609622163 -0.06884378908735728
30 1.5682675700923319 0.13530500800833953 0.718135800424137
213 -1.0275872043591439 -1.2834693900308927 -0.9118825348726307
1149 -2.4755996874914454 0.20626842276102686 -0.3363694225567944
2368 0.3961051313621644 0.6577236586493559 -0.003139931319631343
564 0.05586760779435844 2.4586648351949 -0.9139418592574142
2512 0.7788098775458574 -0.5843128357102546 -0.48745028049535255
2440 0.5809664270553937 -1.0029045101803935 0.32642834404327575
360 0.026899846679521777 3.2639113526735595 0.5169448725261726
3328 0.6577271803055029 -0.10975362091298546 -0.2570141104941283
820 -0.3017655493812849 -0.681799203768845 0.8553727393291876
2628 -0.9010953187616104 0.8021638540325499 1.0944900011008238
746 0.1253216136599492 0.2373045873616702 -0.05610868469817557
555 1.3617125890129658 0.4486101013583234 -2.8106905728995146
2151 -2.1488365316723614 -1.2312578700532193 0.14652734972669454
1380 -2.6687744674916747 1.5054442504604164 0.5876244571866536
1717 0.44466299373124585 3.1790063612559787 0.9865748729579036
2 0.5552171960077472 -0.5789320810465687 -0.9510486371470639
848 0.8429439175415918 0.17896891722422753 0.47571651424782374
862 -1.6965997032331226 -1.3894339100997581 -0.7539434613242184
3774 0.6051246752339228 0.7381976965826277 -0.02310867916596311
3742 -0.007752168026820371 1.4059560914124924 -0.33911644001862373
2611 -0.4463830521554688 0.10952069882784227 0.4282136938716225
2980 0.511901837028357 -0.689516095154504 0.3308350182921908
934 -0.07860042150452204 -1.7183886302317113 -0.504622381231366
1576 -0.146233587621204 0.281714781300315 -0.6809370959988663
2463 0.8589082826639552 0.4834451155650462 2.339782993316117
1402 -0.37988456512271424 -1.2425790444089573 -0.16763979899604406
2842 -0.07797614734354559 -0.0685493199025447 1.0597069270034862
3185 0.38208231457221364 1.415470380393468 -0.9286761009744506
2687 -0.7174604252803637 0.4901289730653264 -0.2602908348742039
3905 0.187826051232921 0.08008105056320937 -1.2919793971048064
677 -1.4449202291198826 -0.5582041779147247 0.060227859689549246
1006 0.11067502411509755 0.5154525814884331 -1.2042652948750299
2747 -0.8035054528906349 -2.4171898296058045 -0.5329108072251787
666 0.40670257138686206 -0.7548220728892188 1.1058448015866116
1499 1.3087157166168297 -1.653893313666803 0.4259135316820769
333 -0.9070169902869816 0.4450433514259752 1.6008466481940673
3804 -1.771557755214327 0.9229568652375242 0.35894042922736863
649 -1.5074212784189978 1.408028811542933 0.2829719293042218
2201 0.6179124695142627 1.124165198294306 0.7253637100097919
1926 -1.297363772374243 0.25616629091019893 1.1395069338288901
2802 0.49516647804871244 -2.0186954089571048 0.3826603783155334
2459 -1.0722483106224587 1.4494891488821409 0.7576969181264884
1833 -0.5727518426212289 -1.814490750117101 -1.0028181183311882
798 0.43910719544427235 0.9681443510584926 -0.9192083621086276
2370 -1.373971030916175 -0.05831335408924359 -1.1336622478215903
2903 -0.36064168900961613 1.0404993409235381 0.6982585249860944
1982 -1.611901769607336 1.3067280136726922 -1.0093869809885359
3160 0.21057842981208355 2.0159102171527565 0.7813465878537146
1783 0.4529567548727851 -1.0317595007964133 -0.9264909693237038
1837 1.4744434113579872 0.4098183726904716 0.09313524752653049
1780 1.5654009574074879 0.4205465842675636 0.12956458460274262
2853 -0.9253898694101542 0.4390588140705616 0.7520301749736104
2771 1.0195827020708772 -1.706473851967416 -1.1588409348726674
605 0.08409636971393984 1.0857097527418023 -0.12370736350291912
3694 -0.6800089671912448 0.07443860599907122 0.25899251422515196
1996 1.0356777263502897 1.072214057339306 0.09531955077769458
1480 0.4372278876133172 -0.5359965672444829 0.7564475402951735
3173 1.0856430355750937 -0.5462111653743247 -0.5791424891510237
3315 0.1865294941552624 -0.45342552426763066 -0.02092030915301647
2672 0.1441532691112128 0.6851981624920309 -0.05016055884989481
3360 0.1158740081858232 1.184188745528088 -0.9270732972857012
888 -1.6885983516048333 -1.945964541437198 -0.46035091628933456
467 1.3569085827244531 0.5101944431329185 -1.8053727579934071
603 -2.3896603245057233 -0.26968451322698445 -0.21416908277072183
3912 1.4026364979046815 -1.2861519574101072 -0.673398267724935
2180 -1.6154406461190594 0.3889920815378626 0.9559610589546279
2403 -0.18380761589823033 1.4438031824853903 -0.24111851352515354
1986 1.1451870813551337 -0.2756994093508993 0.31935555602144305
2284 -0.8371990441872516 -0.566530645413943 0.795927342330065
3158 -0.480221062074519 1.2526247891505142 0.7343512885132065
1649 -1.2956275687787575 -0.5583644486639433 -0.606006973644086
3507 1.5474671417845027 1.6982339419455914 -0.2906986663337625
590 -0.4136956313952708 0.29457948743904594 0.6020760696907262
3343 -1.5437740181600785 1.4196352445699663 0.2668057483583014
3745 -0.9565584878164344 -1.20765376029437 0.33955164912483654
2335 0.13418310771700873 0.08147087824387318 0.7723473227457688
2746 -1.5058925772426317 -1.619246906439703 0.8838625569551546
958 0.18149792161062017 -1.3830524719033472 0.12194517685031378
224 -0.4259469912360346 0.9064822719580875 1.126683994937257
3703 -1.0987409299980875 0.3098889564220858 0.641531723311984
1431 0.8828537661624148 -1.7623361638049548 -2.0217984680770176
799 0.7951846142888621 -0.17600198256279295 -1.6659344583506925
86 -0.0950472084015011 -0.2441818405185481 0.3408322933086541
1648 -0.35797727127568724 0.17355998084602534 -1.2613118538721664
2727 -0.8781662168112252 -0.6160914611557206 -0.4016090649726145
3913 -1.1733793797347842 1.9222716090414054 0.8661316252631999
2277 0.17081588805652045 -0.7782418289024836 1.7060860846152077
1929 -0.975898521764907 1.9960964349576304 1.0716404745772417
483 -0.7437276101687705 -2.0249468500409944 -0.5793561753111804
3216 1.3047041392434482 -1.6664544330815747 0.7185885824038236
2340 0.07509213193057086 0.713736210482986 1.0958805401750096
74 0.624527607999962 -0.7396486383240871 -0.4658857349230299
2279 0.24996611655525422 1.3168908303169178 1.0330632891374452
1820 -0.5628719970189968 0.1437429466056273 -1.0486869982712141
449 1.2030785898160505 -1.5674769198501803 -0.5606798973682079
3841 -0.4998671437557244 0.7940313054946154 0.2142427651581839
145 -0.449733067917628 0.49539403336059146 0.6545667295224566
896 1.6142035178698002 -1.2947035902959108 -0.034253535793806245
2782 -1.7957700087979163 1.4177775264798957 2.661487995349928
3954 0.12136989783696012 3.9022219544589634 -0.7036348455662808
1260 0.8263755579809595 -0.23430566696710242 0.15028643947454184
338 0.9840703814441071 -0.9796387674447312 -0.4720790178049416
993 -0.6112791920995337 0.2596080927110787 0.29329841418869723
3749 0.2881661220362914 0.9505967353049722 0.37011451063704753
693 1.3379905462316894 0.36021882486775475 2.2121045256316068
3244 -0.09119563941657871 1.4580395092806755 -0.22727554313934867
1556 0.6223641356034615 -0.005852720523041856 1.103523104756309
2290 1.1886789903407975 -0.24170137825755594 0.9746441444965659
1612 -0.14378624908789164 -0.05580113568280428 -1.2512598733883327
36 0.12571637921593135 1.1974047724442705 -1.6430720878084124
732 -0.13302542875178855 1.6841141376246962 1.3391678173719388
1985 -0.1749383547094755 -0.6106078417640652 0.8178268162482124
913 -0.02492294539845175 0.7983013213097666 1.3450946881026837
2642 1.5041766890321762 -0.43514305964998673 -1.3261722859245135
1877 2.308087050873726 0.1753619239073957 0.09114068204391672
2492 -0.8756479366018854 -0.3776109909961277 -0.9801512815070431
3301 -0.9638627823752655 -1.7211647826381116 -2.8323181651078397
1399 -1.1933238679495783 1.2312418689675773 -0.400507633903266
1223 0.6005767084441522 -0.57863699957357 -0.4000501495951551
3348 -0.07429015017389998 0.9306534829888066 0.07561357328878099
851 -0.6976457239532274 -1.9821946983501701 0.4969767260878593
2762 -0.5873577925474387 0.03394306681777683 -0.07015734109584523
1057 1.2967017955953917 -1.1008388136612466 -0.9832151256562774
361 -0.5165207022168932 0.7266790380270052 0.7707957390937316
905 -0.1950686290135556 1.9466027314901673 0.6709885856840055
1914 1.4248572340980246 -0.9535798856385388 0.16873912591887721
2940 0.5201639769683445 -2.198941191295964 -0.05033989475173978
2132 -0.7338627734788497 -1.9533772485435947 2.0461776402945873
1440 1.716172718388259 1.222639360234192 -0.31189544188240087
1830 1.1692799162871506 1.8557274646422193 1.2367418336235751
1587 -1.6414673936464845 -0.3609086201249613 -1.3803738317653649
3003 -0.323680151219926 0.8808683299914432 1.267304967095514
3689 -0.08168778014964266 0.8739193813497694 1.3311456776084885
3740 1.962596344402116 1.378482837940332 0.22625649430788633
3170 0.2503436035822635 0.19653845088828098 -1.131168892468894
733 -0.41214540602599237 0.8494923107756549 0.800887139638331
1434 0.17050875764796478 -0.32315572943502086 -0.12911159480690146
223 0.5072538758920577 -0.09956973722797961 0.16551663167892872
1846 1.0215239481810576 -0.47848560069232415 -1.1653387843804326
3616 3.0412469454477815 -0.7482478619092173 -0.08394464133222714
683 1.0805931525874655 1.7633572511720617 0.3168957245222012
175 -0.01200788232433697 -2.335863078800384 1.502761575114571
577 -0.1505979917381018 0.8940603915308449 0.7295559996520472
1523 -1.0550524225504196 -0.5339963105550325 -0.4692172585719219
4000 0.39522024483111845 -0.7056298532793424 0.6466136108047563
1075 -0.3872739358460234 0.38778194206037275 0.5215632358524345
413 -1.6655155153055534 -0.16704462744798995 0.2284879286686727
3563 2.0486841405099545 0.5078473958533147 -0.35783505146861533
3423 -0.04991624901730435 0.008711493053280929 -0.2206166990834402
3077 -1.1852082233367118 0.4649297851044811 -0.9960024384365318
3081 1.5883224430227825 -0.5781592105016816 0.7556189192912945
2783 -0.29974767815083686 0.8745628071654906 -0.11455966636114401
1186 1.0602566779251172 1.3273885204937828 -0.10547330680665623
3219 -1.259146634052916 -0.4794365438583189 0.11945444373400291
2950 -1.1782852437454734 0.8479283122074655 0.33266973350931445
3729 -0.9528433734338191 -0.8937343033679942 1.177585383891142
1178 0.10444487326327802 1.0429108197724306 -0.21943640491027974
1051 -0.3735212316235564 -0.7880316364497322 0.3801691468304011
1704 -0.398699616818824 -0.20516993098472466 -0.21456631181331004
3590 -0.6513292079143311 2.0372590485966575 1.4597190820139263
3725 -1.4900234415245355 -1.2683800149113709 1.324414357177725
1619 1.2536417831019913 2.443438662785158 -2.5786368610270225
3478 0.5687470634226047 2.1879473865173145 0.7591466264277972
236 0.4971017524703953 0.04503354379451873 0.614030491306967
3955 -1.355527316090323 -0.35962730985842717 0.35633289998353
2447 1.0734078187488807 -0.8779324116549568 -0.18633291361873144
3577 0.7012538669495574 1.8298484537659145 -0.7773742586866903
1121 -0.9784330598671159 -0.5992700834860847 0.9531229539498144
3378 0.21783279777865053 1.1576647909515494 1.7406627694390069
1070 0.026243905687236144 -0.35009987920357716 -1.8101651464207258
989 -1.3023654997695338 -0.9922833051685733 1.432549174160133
1784 0.478031603200174 0.4376141335426357 0.5432203521130718
2477 0.6116777300061705 -0.4768321231207673 1.5948773323881822
2934 0.014566691922525486 -1.2991781545459802 -0.7396915691808437
770 -2.4064801857576774 -1.1565981818451776 0.2111267836083335
1171 1.5981570935408176 1.3441273793161554 3.174725106486683
17 -0.19201103503105793 0.15683311371452646 -1.073809727124352
3226 -0.5060919521338202 -0.18010900913241523 -0.00945249079594079
2157 -0.42669053571859084 -0.588854675874836 1.6416781141747887
2146 1.050107612904003 1.2694679479356308 -3.242918472934847
3878 0.27052490467197093 -0.7368246853691576 -0.23938553248790376
697 -0.1093001184548984 1.5653424925121493 -0.05111116040085031
1841 1.022733635624146 -1.0730424813555606 -1.1252135184531806
3916 0.01785659529494546 0.8223932085971151 -0.2897021271249438
2753 -1.8438359372666075 0.7168898965138897 -0.09336302517845399
2147 0.8279183471621229 -0.3189331475392453 1.6558825760951104
114 -1.040970309091973 -1.883823169742383 -1.0448076721916466
2225 -0.4995829019381814 -0.30487766069232286 0.6555784199541727
2128 1.3168542331974522 -0.31217497979028874 0.7005320914778532
2265 0.7287078411281092 -0.7113151876833924 0.4041718491868943
2083 1.350157782083069 0.07051416921589432 -0.3666090131522298
263 0.6965551033335117 -0.20824715116813985 0.9392011223996102
201 -1.749939630439007 0.31071591975089935 -0.27552911711100864
2022 0.07754933504601508 -1.589108765293204 0.10546659945570823
1375 0.09663400839217023 -1.1962443794983473 0.050285916525320884
900 0.7544783251286752 0.02625547689590008 1.8435490939907633
881 0.7788273208851761 -0.11054453681645185 0.7868107093461952
1656 0.19210191795126233 -0.3503913665496327 0.20266077137758257
505 -0.9834023181355804 0.12706794426706747 -0.3392342084439175
75 -0.2894652296072665 0.9896788277957111 0.8305044096527535
572 -0.5956245268356364 -0.5851802129050014 0.6575179611363294
849 -0.3873512619312381 -1.8731872062440396 2.753412362593578
554 1.0637962408374528 -0.21311633758823048 -0.21534598641987918
1479 -0.3034634089575793 -2.238027941698586 -0.004050207980332585
2208 -0.5814816452532334 0.11696795136758928 0.8822246612967454
2317 -0.8472967895631166 -1.1703602320167255 0.4504418855624333
1113 0.484472091365269 0.1972113472441093 -0.45013444445245565
1674 -1.8167008089708276 -0.13333425366420099 0.7980668487812891
1005 -0.5906611642445633 -0.10784528450715333 -2.215986048862553
3665 0.18357320518354694 0.7650120454252859 0.8961712043038869
1034 -0.09115558681673314 2.0860048116861174 0.17254387447068947
622 1.7407701447315678 0.5400596721003756 0.7101232544478746
1225 -1.1878717991244943 0.29436321007388994 0.42869840152655875
1169 0.4235701532127185 1.6716486639273658 0.09295702944572672
1516 -0.05830697147031598 -0.45712724017316025 -1.515964089313247
439 1.0279327467635557 -1.9107936824868286 0.18297274025358878
3466 0.8058589819971884 -1.5080333237111843 1.0917947459694568
2238 -0.8886313743341733 0.33041846054852586 -0.38989419722626034
2346 0.1808892614798171 -0.5427455921278327 0.20264191760358471
2560 0.24201550025014398 -0.5152612592432201 -0.442955555295096
3390 -1.7291662623396493 -0.8369268894559192 1.8552972957700946
3340 1.860533180042903 0.03281062038082066 1.2907487398552777
2319 -0.7074712062242287 0.20113471625493667 -1.5329866869813222
1122 0.09537793613059851 0.14246831244105668 0.03992646420500422
2848 -0.45006532627347323 1.1452892025615211 0.1353875154950356
1448 -0.25651848822271 -0.02935311189123993 -1.1001475622651389
1855 -1.4727413187898022 0.543319692783247 -1.1023990904182734
2264 0.42463398736476626 0.09689118032867235 -1.5729538772393303
3011 -0.09535407049146445 -0.13422081571392738 -0.004405116606338607
1236 0.9547455716967385 0.12283688216189455 0.11603152498339499
272 0.876109786328576 -0.49638395491867016 -0.5913164395270426
901 -0.5183919164875305 0.9332880607409009 -0.8739555293163933
2646 0.7885898433951712 0.2816020477040752 -0.0889150335219689
1920 0.19202443474399242 0.8967463510745264 0.2841694967558188
3514 -0.21592995316730282 -0.5045588832396166 -1.5840156701277017
2223 -1.0785357368763144 0.8438067587062336 0.12064921106140916
1865 -2.8349289014019696 -2.155401611695961 1.682393628007124
1638 -0.2604051864921977 1.1893015980152506 1.0441426811439907
2664 1.6123869612192172 -0.06705732747215559 -0.14153182899770994
3739 0.13378316451544148 0.694252320881532 -0.8077205324427932
1265 0.5788564976394287 0.6152019911303294 -0.8063749618848394
2779 1.9312719734907624 -0.18557934066049847 -1.8645333862149405
1824 -0.20352357640680468 -1.290589574425964 1.3780120523878723
1525 -0.9519508657829353 -0.45336772993010727 0.4220497015478196
1045 1.0140031852188787 2.130141767231187 -0.9158837654169972
2649 1.4039890341215997 0.007289482884573035 0.8389798717870617
1854 -1.0186937244532426 -1.122916293991294 -1.4461035033936656
781 -1.166363812242697 0.40511469667138195 -1.8873977719441357
1569 0.4312942588997822 -1.132629930084534 1.2701146475138498
2895 -0.7411739671869059 -1.114312456522041 0.3856791841779543
3619 -2.597061723079294 1.382243455585708 -0.676511480003501
3624 -0.5097462439128743 -0.5144028028846784 0.8036156956313778
3570 -1.7404580902668714 0.2370743778241566 0.5508522761468143
1967 -0.3755095493966326 -0.3038269326959573 -1.2069617700100663
1984 1.0213521998870982 1.6671237384458106 2.0841217172916116
3078 -1.089279248988396 -1.8971086168004574 1.2693696593804793
3073 0.2947416513466211 -0.8611223872170931 -0.17088035515416575
2018 -1.461793244738378 -0.6700804296699049 -0.5817224537112899
229 3.0490703430210977 0.4775314041076843 -0.9113172561153229
3652 0.26606947443008677 -0.6916867987826029 1.5770642385700282
170 1.6630127735589182 -0.7329842128107946 0.257432948873408
662 1.521005906662625 1.4268979410200024 0.9857237210273024
1766 0.26045940459366534 -0.4868043966530432 1.2933306763364834
626 -0.8131559664438627 0.0008653307757868897 0.7179142507729432
3403 -0.04378387952090084 -0.5173575515270817 -0.4533718018237617
841 -0.7294325897244589 0.8538672761348588 0.6780092215746164
1436 -0.29466323445578413 0.43699845455270303 -2.1980637171069506
645 -0.35027372092101466 1.304424263174262 -0.38979355725236314
2674 -1.5484116600700812 0.9181390050757484 -1.0384669085653082
1551 -0.20881332891618887 -0.5531954392503856 1.4006682231053444
1646 -0.3660006330229769 -0.2027092684634098 1.7392770443951664
1839 -0.08634940844601145 -0.31057179536066365 -0.6405970419858644
3434 1.0447125265124764 0.6790222845937054 -0.7023962774020229
3300 -1.6315546441712925 1.181735666376584 0.6310824092184402
916 -0.6881308977882356 -0.7904383047966751 1.7668353684240556
382 -0.07485117862420433 -0.3506133901990741 0.4239137403783904
1478 0.622631955903757 0.3609903008040426 -0.7766313671830567
1785 0.28393288994780624 -2.6424410881801204 0.15264111866653524
1782 -1.9576273094359078 -0.8373738763240905 -0.2093669666991351
3223 0.4359691566458865 1.2289656919670089 -0.3852362213506339
1625 -0.593600892647282 0.42671945055759974 1.1448488869724232
1746 1.889581325190072 -2.0828835308749047 0.27498527248178256
1461 0.10418963770895129 0.4335426157706908 2.03225410633361
2703 -0.7897292183112835 0.03585217883465846 0.493260293920712
524 0.4109873588440543 -0.5615365911332424 -1.0578679923957581
3853 -0.8652416452382472 0.2623422533907392 0.13137805824715293
3599 -0.3704013531011507 1.4228003448633855 -0.545176996948874
3054 0.15990202574726003 -0.7562285837088132 -0.5863397792631819
434 1.2869142275849212 -0.9209508369379448 0.799954089971059
3195 0.3051191097664696 0.05780454699961746 0.995713403805777
70 0.45853325559191005 0.7509784891878526 -0.2402936485784263
237 1.2129564097470347 0.16207998384526084 0.5647741548881444
3995 -0.3605040901633577 0.08361083691322609 0.2606052902270892
1084 1.3730281641601811 0.14840236459668138 0.5896514021380621
1053 -0.7404868778666046 -2.1303151752046463 -0.6439333367617703
1460 -0.5466506299092242 0.06494619121474839 -1.8283107582127796
929 0.43483515961292696 0.8608025631985424 -0.8471033244419572
447 0.021793978244815937 0.5785934125893432 1.4199251670534097
3777 -0.5282744167840078 2.5402440810089852 -1.91299439714121
1135 -0.9453535439132897 0.6294357154547677 1.4841118915405513
3318 0.5693391683770297 -1.2441820660321263 -0.5042319344055376
1651 0.4795166478515866 1.7485109358270592 0.5099293467464551
42 -0.6254608956618739 -0.15892549183175217 -1.5736412018039874
2976 0.31485286201146423 -0.23776808932765728 1.3091604045505922
3938 0.007654431916858081 2.700543369364718 -0.4475797763988228
1849 -0.1818365634422381 -0.8452451075609742 0.31381203303629956
3784 1.154642840052914 1.4243287286686164 0.17034513919418345
3174 1.1698063865909283 0.3503352755301138 -0.17497936963157495
2902 -1.938290483444581 1.3516081250635203 1.0563828954733334
681 -0.34456356459071236 0.38864234156821353 -0.5140847553411847
284 0.633997587551101 -0.03756337450464454 0.6163263452302785
1305 -1.6513547693741477 0.4354958224799769 0.5039020153899442
2190 -1.1641279773940596 -0.548053433551496 -0.6556511897361993
3634 -0.6479698200483133 -1.1720465747466633 -2.292229164063597
1414 -0.008342388980649977 1.386791031773872 1.923432113004989
437 1.246885616076837 0.23756105558126703 0.3877498367562739
244 -1.5386514205112019 0.4849956416399977 1.076471434985086
2401 1.5656112365825108 0.5687899363123989 1.0183994061062187
2306 -0.5348465797247601 -0.10912969903785931 0.9773755513674891
81 0.6268122359146384 -1.0031866639367182 0.4356679633254776
182 0.02721778102421663 2.4704545189940714 0.47753531405338556
1927 -0.5271979693607551 -2.006083419875817 0.15988471319043107
1845 0.3852133617856294 -1.049909483509546 0.49509514387785925
3536 0.682214499052335 0.9651455634902921 0.757787235440948
679 0.01668573682643315 0.37389518904085234 -0.39317387306015833
430 -0.349717547465142 -0.7281972206750988 2.4313692315256477
3692 -0.24595323112628403 0.5951354249610119 -0.5372108139057865
187 1.533531195810946 -0.7456829227990633 -0.5898067539687653
19 0.8542310797632883 0.5151374128465568 0.8504322987966161
221 -0.08186539480991445 0.13575974064437865 0.7060676097336469
1492 -0.7414982437493869 0.16351473569933567 -1.887541866329115
266 1.3947900796742914 0.13541999349094397 0.22735286476793015
1044 2.148501611021228 -1.8055492913347504 -0.5356729959166536
2568 -0.27295262601336445 -0.548151951362647 0.3977592700442834
387 0.017929344564096686 -0.4939784538614526 -0.005866442302931152
2698 0.8474479021604578 -0.22943264050127699 -0.6451688003015265
946 1.5299856555914382 -0.33631887477137223 0.7605834086657545
3831 -1.4304794409010761 -0.27414688209660804 1.1878120720510479
3309 -0.3731374515964729 -0.02275467686111537 0.6381782678762143
923 0.16453844151020383 0.922178213460821 -0.687079211396551
1338 -0.6731586294176821 1.1307652826594325 -0.7356698382458712
3442 0.04826965772872037 -1.756591175976146 1.3810549421404905
1668 -0.016852264917140335 -1.3767977143483026 1.296852649648777
3971 -0.20023599981317347 -0.44538253048096155 -0.018722667038984186
1790 -1.0267898043413173 0.691445852292608 0.3361287508327872
1811 1.1484838996185922 -0.831260683722735 2.5034115600416067
3564 -1.8092175003158706 -0.14186231779510514 -0.07044171310354592
1713 1.0978817591389 0.3517985855452146 1.4341332816730237
889 1.9018343700438654 1.3047129007370406 0.38643049670011015
1583 -0.37030685554335385 1.0877859292785377 0.7735651205111042
3662 0.5814699356677184 0.46900613610059283 0.17282678595774895
995 0.40162501805304057 1.3421000974185953 1.345271592832904
2744 0.8710546481099534 1.953140696134767 -0.26859449607832775
2743 -0.25467565867032366 1.7470168253320715 -0.8121750408063628
1856 0.06293676097162157 0.2463386212461198 1.1311418979669805
950 -0.9807905196772041 -1.445059336783185 1.258370973568802
3062 -1.755257851092529 -0.9690713423947352 0.36852300599044846
1412 0.7172574741605808 -0.6161493935070848 -0.29835351818912326
2138 1.7133864250999034 0.25656058448678526 0.5953600583682146
2254 -1.0140958770644721 -1.0692779814401454 -1.6360925952536924
1903 0.8979671771576307 0.5128927245883735 -1.7822706271186084
2872 0.9850684966056555 -0.05462678192449211 1.0983636263921872
3660 0.48838415353000975 0.20385742321293762 -0.03057237910096002
3816 1.1399656072106312 0.2820012388147556 -0.9329681484910486
2724 0.8212804827928787 -0.06626179683790798 -1.4412946432067726
359 0.5824010926684443 -0.7674344537979748 0.3108391306155134
392 0.2000207649509393 1.1244136465613852 -1.6938038033749272
1509 -1.8411955811244827 0.36651102658639706 1.8392257617781815
12 0.45656817590194737 1.92288808460144 -1.401896265687903
210 -1.802953521130664 -0.7120415337951383 -0.06984201751842674
1202 -1.7155411026205676 -0.010082990904960218 -0.18745210641561866
661 -0.23267021873412919 0.24703191234538738 1.4706317021123236
3184 -0.4764938221028047 0.42286953218421824 0.32115018768885256
3647 -1.3002012067418711 0.2398068254947829 -0.08184333677686062
2430 0.6001641687259487 -0.08214992132027885 -0.017461602784303604
2099 -0.39904196161107275 0.7652863732174325 0.17245216024985544
602 1.6003243579684927 -0.48005631163952334 1.1028663912587737
100 0.3025323880066932 -1.050999181479757 -1.7507241190422105
3511 0.48599291307744846 0.29772453108520014 -0.32068628126220494
367 -1.1736435171043351 -0.3439673860409845 0.5426362088970246
2621 0.452442878098203 -0.6229470100446217 0.332561676278761
3761 -1.0306831380904522 1.6399866445031603 0.9566519903439697
859 2.1734547022621915 -0.3608359270424409 0.14673612382896914
225 -0.6285066673718047 0.2669762693614382 0.009173180818942245
1207 -1.9346527262447746 -0.007273468762988098 1.753159416879672
7 0.2970946495034626 0.7605275172451821 -0.44120594997309326
214 -0.19101512017468814 0.41755383586879824 0.9714094488417544
2419 -1.4403588037528874 0.5538210137512279 -0.14027269150832117
2810 0.46542823890892626 0.6607581752217889 0.11846692313230582
2954 1.9083571578731064 -1.3910424704306086 0.0271537671911929
2396 1.9227595543415446 0.6722403706689696 -1.3798337238051308
2691 -0.34196498465194486 1.2499334628665633 0.425539745424982
773 0.15483893264897888 0.8950880295604865 0.9167706385927971
1508 -0.663587186100275 0.9070240876769756 -0.5670243128240041
414 -0.03837208504746877 -0.31205769177471926 1.0703185552564924
1301 0.07880137422984845 -0.9470127864456762 -0.9754267069934934
1152 -0.29257113625620695 -0.4875171578055541 -2.350820579224019
2405 -0.37324856572287796 0.5793941445161493 1.1532414447094597
1983 -1.9738582202117207 0.8820945443453602 1.3521535235937399
2522 -0.4196277543240612 0.9731929618923348 0.5200058906511211
2528 -1.1079882118325135 -1.0663527043364704 -0.5313829608839854
1482 -1.8540376415897448 0.6197464069424431 -0.4768000070027621
1093 -1.1177101344530243 0.9051877891629108 -0.17658515227590874
2827 0.2936957260493647 0.24609344298401337 2.017711683041856
2868 0.867227047004064 -1.6130291179870735 -1.7053307530616761
3028 -0.7413411522049449 -0.7653713317271946 -1.0482371769138916
3797 0.4763944376840394 -2.044139003757287 1.6459532322536536
3704 -0.07205340819469934 1.0245157000534293 0.3875062606219636
1208 0.8700349843460521 2.4680914330111885 -1.4174835842302074
2167 -1.6681489027600591 1.551458117312513 1.6959568867512909
3421 -0.9241066013302287 0.9282423131545061 -0.40893760863877127
3538 -0.2690923064287433 -1.8012157649120508 -0.6191877664800332
1188 -0.906798792078825 -0.5000308789817247 -2.1812029714481946
1843 1.3506604883874145 -0.6734806704094563 0.16419501358823926
2007 1.2892017526930644 -1.128828251957039 0.44650423446831033
2480 0.5087446676395113 -0.608899712796597 -0.926957523333209
1393 0.3582937584772757 1.745682019258481 -0.13561904340678677
1660 -0.8151688681921242 -0.2626160259226464 1.3517567320193433
628 0.32815285505518893 -0.2567427113692636 -0.7654920527514834
1476 0.5566666453428434 -0.7031035988482983 -1.1750731997546502
3146 0.35087238507648966 -0.23788914470053765 0.7035828934432984
1815 0.2678911815165431 -0.02138499335005571 1.613771070575326
2456 1.6855685887052645 0.6950613502355991 0.49722549250507764
953 -0.8194714480282338 -0.1468508906128509 -0.28876061526303176
3007 1.2282841343490158 -1.0747326002987043 -0.17662878236944046
1545 -0.08687033836349617 0.1014199247345608 -0.012411068255511665
2031 -1.605265326396258 -0.1835909082460898 1.0331991491326629
3765 1.7202238965075602 -0.7419726403180144 0.36594716428320917
3370 -0.6558388542547725 0.19454522833444504 0.16812338197182497
288 -2.094975313646034 -0.7345176106710852 0.6462522845589865
1408 0.39726734534094443 -0.735719180775142 -0.5333511351123676
2709 0.18922463206809595 0.3040192010514295 -0.4445740823784479
14 -1.7704421968491402 -0.006352507660360231 -1.6207041853174153
189 0.7039411881968042 0.7798039138684506 1.885257692448293
1512 -0.06081802841628645 -0.503289333299598 -0.7117924924955183
3063 -0.5278139990280815 -1.55814160337858 0.6512816531584129
3101 0.4481189358954316 -0.8596041130863449 0.8923593840357074
50 0.27274820768274793 0.3802040193182283 0.8846013255632829
2240 -1.5181816876143457 -0.5060933163142446 0.259703299263762
2527 0.679765032955721 0.9497382494771222 1.6132538685302211
159 -1.2335807310067184 -0.38812875408569947 -0.8342693520566998
3962 0.8330924820730486 -0.018910353540548826 -0.7316455767679036
2875 -0.19171256808964418 -1.7025836826784506 -0.06215751342550368
3908 -1.906071765775894 -3.099644666737559 1.0964243153500697
2925 0.11355805540824215 1.0138089630215734 1.0185410805094472
347 0.8843604920309387 -0.6397052806957264 -0.737668113049145
3917 -0.5584842603184719 -0.8908604617151755 -2.0088810654408626
3950 -0.3502785667248987 -0.00788358997439191 0.04494831797865694
3446 0.37970471893760516 0.5484464802933507 0.5861727781304203
1360 -1.2754105167808771 -0.15227781668735457 -1.085529803366782
700 0.012458299079777845 0.6361794978404779 0.4057769736307156
2583 1.041223975413657 0.3094129041480354 2.188872569321196
2004 0.35735622610187223 1.2388052570810923 -0.335832587260062
146 1.7653119786729972 0.21996903506139892 1.9556567120957533
3311 -1.5434343300811384 -0.16231257929121584 1.0227964296378165
1248 1.4507021697619316 0.13165320780827294 0.2471622639788027
2516 1.1848572695236803 -1.2425418788509428 0.39118865465070113
3181 0.11777926279924945 -0.48910169766697315 2.157004970669236
1789 0.14526668055753372 0.5458084151477355 -0.6298843096252451
356 0.6476554154000905 0.2420634823423589 -1.4523192712707265
2558 0.26093436082639077 1.5927400452236802 -0.49335323073653814
1679 -0.3705653073965536 2.853062510548901 0.7807199240053982
948 0.471265791258739 1.0250848894867708 -0.8019286729681645
69 -0.9220521620308545 2.237141105758406 -0.09267394064602479
407 -0.3436441598316288 -0.9232521144954333 0.0813283733712946
3523 1.4340962169489457 -0.4769759388183743 -0.8817995248263336
2509 -2.334828010660147 0.20969326888370451 -0.5702018274322992
2414 -1.7985490226930934 -2.14256621901399 -0.4291672816892596
2115 1.5400400018778995 0.08517038993753145 0.6718309555780557
3987 -1.1627591579066012 -1.0409204150828064 -0.13745876948442118
1964 0.5924986275211275 -0.8695072772984985 -1.2349375700779037
1309 0.41145065403830305 0.7902221037070135 0.17925124490275413
1558 -0.9697389488961714 -0.35619089698425654 0.8253173255871081
3419 -0.5862838962264604 -1.572024855022721 -0.5064495957067228
2635 -1.25216662569623 -0.12047789075593623 -0.43221186827784164
1706 0.6806637283594046 -1.3672262559923511 0.26314399688903367
2587 0.171163886374497 -1.3193454111694138 -1.1698553533644025
3128 -0.9763188505716648 0.3967437813811845 -0.15136758277030574
2137 1.6853117500654093 -0.2984584876357664 -1.8363501619713865
3854 -0.6096661492583811 -1.8255951468676979 -1.5653226312623536
1107 0.3457832841775648 2.2492584216696803 0.2556118164837842
674 -1.4216220498187528 0.7341744149663973 0.4974932428092
3573 0.160892532680128 0.5655133419436071 0.55583789765342
3113 2.108527613941977 0.4172104179901534 -0.4480714730242935
1883 -0.5082920963175047 -0.7520352332293012 -0.17218915177477384
1203 0.10693308200866844 1.1491756959339714 1.5690722139592144
3148 -1.5273078191852427 -0.638476253967296 0.07803589779897756
1193 -1.0242461647804633 -0.43386625970015025 -0.009766270202622987
3447 0.6177596479666234 -0.5010369626422307 0.4627817591788314
1869 -0.523303472131768 0.7787703495192584 -1.6044943747906726
641 -0.8301608195988679 1.523317005050037 1.5186796592567635
2005 2.396608366127551 0.26676926748999297 -1.631791757822998
1928 1.5200998868620574 -0.6230566819949249 -0.3634256046301759
3331 -1.0496006429460718 0.6389539499653496 1.6267545357701751
2721 -1.1164691992253832 1.0754961226835655 2.217053061830919
472 0.6563351106641154 -1.2266398595283219 -1.3462548896989837
243 -0.1414688858726282 -0.04717129212353067 -0.28060699804380757
1270 -0.2977074172678606 -0.3112424988611388 1.3530026201789345
342 0.03660137480152703 1.242321881475412 0.676572915505035
3969 -0.6119350521854925 1.3057129843138064 0.5441057749542008
1079 0.9433679561085069 -0.3632026727884877 -0.38101667664961747
1747 0.27337575737423414 1.4775035250876534 1.0699566780985161
1038 -1.0963729875621102 -0.21806600539691393 -0.6792500930721579
536 -0.885110463681867 0.6027893658492608 2.518509940301732
132 -0.41539329734053754 0.06108951473803557 -0.9345815725942387
62 -0.17236368265139584 0.2725146144958503 0.8627209304580271
2831 -2.0389804764017536 -1.4788415424766053 -1.796458408242637
2930 0.37465224990171503 -0.36466782156667604 -0.307134698660461
2253 -0.6771138161087384 0.2543938127047579 0.34849128641875293
569 -0.06863692890418571 1.455983351391711 0.22794555741624814
1281 -0.4892497261237895 0.9778252887974136 -1.6383409449120234
837 -0.1603532659987451 1.2979489966542987 -0.25072051096308323
540 -0.1589039875905932 0.31687379286862927 -2.071868867949398
3386 0.7815012020328765 1.1360749126160674 0.8291071821171431
875 -1.1080220672486147 -0.587381622649309 -2.0875483903191783
448 -0.027326846142080752 0.6365979292613166 -0.02614499457181766
190 -1.8267109694585826 -0.7997108887605257 -0.4418882047085969
2369 -0.35812696341646594 -1.3618063689716422 -1.3448691393817407
1898 1.7001216597935478 -0.5832718977359065 1.143615267421917
1546 0.6225804808950672 1.5871923556193177 -0.3235113279387989
3649 0.3585537431505593 0.7616214906163591 -0.8353551403089831
457 0.6674877112854913 -0.9890011021781212 0.4012159916705926
2445 -1.0052746596693685 1.2934716514516982 -0.5479348441336465
277 -0.5633524577859599 1.0778798196063084 1.784888558645181
1349 0.16066112968317056 0.11815157191980566 0.9811612610001575
694 -1.4424501108673125 0.19606823787833902 -1.1733657231010217
2893 1.6016688976534907 1.0461607006619162 -0.7712128797198763
3675 1.2222951699669011 -1.397766076266953 0.21186613647166266
1181 -0.5396425800997514 -0.9239197353624338 -1.6244125876959612
3734 -0.7779674656150838 0.8080774853533139 -1.6661158003541818
1939 1.490687088772674 -3.0181712971962087 -0.16093346122073257
1221 0.4993340727536842 1.1432479721059652 -0.160714981267726
1582 -0.14330231367748425 1.6944962460629949 -1.6026873574892195
2488 -0.2154584205308506 -0.7884720952127979 -0.08438055314693071
167 -0.5553992078443908 0.712347735330325 -0.7859105311409219
2272 0.12630799616798294 0.24862901473896104 -1.858731436093487
2911 2.3481361745615765 -0.6343500996047285 -0.27091611637380736
3391 0.9989089609335053 -0.37696898631974496 -0.3039681572380328
981 1.3376083266879877 -0.21550469664367572 0.41789824089108574
2215 0.8969354704179712 -1.3833271293993967 -0.9642348615928199
2975 0.1448390688106193 0.4967271739990355 -0.27444312003642785
2036 0.612299292259423 1.7647345324587578 0.3278680022715494
1888 -1.1368551553444268 -1.213466101065019 -0.8036540468949378
685 -0.15923044368461614 0.26005674550352054 -0.20848726924699712
3833 2.771575041714769 -0.24073891655358387 0.43614601336716263
2840 -0.8995563817676248 1.1712679576075085 -0.7989527890230472
3263 -1.436590253643189 0.10437031760769698 -0.6267269051940791
446 -0.5722992788579707 -2.0274864236790053 -1.0387560362985644
625 0.704392789236501 -1.5826437641246593 -1.898319714459257
3562 -0.515387645276165 -0.26236353578255284 -0.5101428197108402
2665 0.07217319935257686 0.29490737321638727 -0.7624637641127449
3727 -0.881858839741595 0.7041329698953848 -0.19725769700351312
688 -1.397670914960957 -0.733434146098438 0.9215039830297782
1528 1.1858990094582575 -0.5626917674557962 0.6370413241422072
1172 0.3531760962336016 2.307116171901359 -1.1488085098868503
1788 1.4836371064326055 -1.1150786362935967 -0.7574977687058367
1710 -1.2109334795495843 -0.7928780336934319 0.010840154726328028
657 -1.1864016703639244 0.9271901398132758 0.22713376885307315
3883 1.4032277588555162 1.4031459027651532 1.090871218237697
3261 1.1278989873838103 -0.6448332495839837 0.6020194730627241
1119 0.08842103323968119 -0.010809761081881416 0.1738109886516282
3213 0.0783859991528481 -0.3644151070473811 -0.3184645829019425
3176 0.3566513617818916 -0.09890150208565794 1.1531890428172213
1723 0.24894281378920174 0.7236718056962415 -1.2682584369179946
1110 -0.25021922471232616 0.7692912582267908 -0.07789670120711703
3435 2.070778382169111 -1.239431994936667 -0.5057009233562189
321 1.2319270368147155 -0.818563203972644 -0.009678579798172488
3094 -1.4548667874432513 1.3664337567021363 -2.0935922622846683
2816 -0.38655423770001635 -1.1139246033200276 2.169811791776862
43 1.0556518893046019 0.4234171002844095 -0.9668084081973866
1673 0.3278866010408982 0.26137807947391023 1.5681717700133075
1341 -1.4609119568665856 -1.5976337837820596 -0.23641925617913073
2629 0.7788696820029024 -0.7924160541827249 0.013529863541046072
2657 -0.013650121969110446 0.10097670832860478 1.5790037169296858
1956 -1.0853071311119464 1.3076999905975173 -0.3448528839576845
3844 -0.4876264308454694 0.8643064918240669 0.9231480210856234
2920 0.8025984181643809 1.7032604338039223 -0.5883858565730228
1699 -0.5901769370131223 0.9635105585945333 -1.3114143323749112
3258 -2.1525207168865506 1.2879413759274725 -0.3448031597855084
1946 0.13830389175850974 0.5518879795838817 -2.443169959283319
2108 -0.07490046914208229 0.4588811358338504 1.326716903245792
1742 -0.6687603741845399 -0.8185805929687607 -0.37183492303872073
584 0.43543549554564503 1.4491455612799624 -0.4262271310505084
3837 -0.7606475872096317 0.46629988175040327 -1.029483611592758
1054 -0.6107640251810441 0.7098016203618652 0.0842202786452526
2625 -0.09706006255712851 -0.1762003449658489 -0.3456017289108994
1844 0.720204079437635 0.39051346698564726 -0.039586398214733316
3295 -1.94266276605856 -0.6895044274425282 1.055278585928707
2468 2.1548726676122385 0.392503065465798 0.10486488612554822
2585 -0.2471551279983626 -0.2603216645658626 2.2834884463087386
165 -0.0615071830897764 -0.6491237913394043 -1.0576022154750373
3705 -1.1259989926693708 0.009869086806689135 -0.6943827711243142
2946 -0.07568523343561934 1.8816023754230697 -1.0224711023822823
3040 -0.36770035506536114 0.0895167368652007 -0.14902538144075198
2726 0.31173621169393123 0.3402564662529692 1.5457108107479953
928 -0.06378622352501252 -0.4459158261880992 -1.332570508900089
2479 0.8785454303129046 0.2538163040458793 0.04378585973321263
290 -1.64635862163932 -0.10063072180927575 -2.1346719230621667
1327 -0.04222879978247829 -0.9923432265154544 0.8494024312386746
2311 -1.711769996471016 1.4873253510443905 0.012418951595241179
737 -0.4470290600705816 0.12932825513244683 -0.46348255305517094
2476 0.8030806064275973 -2.141962334888324 -1.248489408357249
2360 1.7384217979265957 -0.3667362604745476 -0.37284286586719867
1963 1.5399542607450378 0.7191220552143357 0.3080780976664022
3558 0.5106758738463776 0.7810385096785926 -0.062064936116412034
1379 2.0245798175676923 0.17601511032598222 -0.22229012907809495
136 -0.0031661685121125763 -0.1857749748198659 1.9275229347042075
1199 0.20735793836467512 0.10763914083034298 -0.7244362803274546
3542 -0.31304684934061505 0.4617230423944988 -0.8632913383064111
1943 1.0394848192863324 -0.9666636959782269 -0.1477751986574281
2156 1.5008522227216832 0.10787365362481137 -0.4916260180927137
2648 -0.073384836372452 -0.7066971248553644 1.3623621352422381
462 0.060796942522577654 1.445846559750369 -0.8244576788713
2251 -1.479389754809961 0.13704706302542402 -1.4082433381239252
3839 -1.0254162363634578 1.8063595783545847 1.7713159051866236
1936 -0.20421929313781548 0.7200073778434007 -1.2603269521872693
2846 -1.134326120443528 0.9529014846600805 -1.3149393373482743
599 -0.14116647493948373 0.32598644238757074 -1.1887779373495617
1068 -0.017983244544680324 0.2603441446917516 -0.40880642143438856
3949 0.4420556060777739 -1.6440917794635284 -0.81040164961665
2164 0.31161152996052904 1.5471583363024441 -0.8967047766860355
3123 0.26711863829362864 0.8590474715043829 -0.565770122320415
2978 0.7088675817868969 -0.711205410393296 -0.7425184464057685
3070 1.04558799297991 0.28521565903086654 2.0769984089922926
2892 -1.7461700937353308 -0.4968628898146983 0.14135469009062826
1109 0.9902201899018149 -1.4493955874159923 -0.9519304787262209
1322 0.8755001716145647 0.27245166737619414 -0.50216820305153
1992 -0.5414019131654277 0.9978469169392332 -0.7676814642132612
618 -1.026780581365288 -1.64873520185714 -1.461106356196275
1304 -0.13244428646243708 -0.5556014792816508 -1.5134643667179322
3752 -0.6315886593542714 0.4227985154573883 0.48776781632639266
1951 1.192626581735756 0.594291301842245 -0.9196285509528148
3353 1.7348831048159112 -0.3882625205452675 -0.8842213078334696
2388 0.680953701019982 0.6302197437911446 0.4055979508359905
396 0.06914023914753643 -1.392254124364752 1.9558904912000203
669 0.9999681101599733 0.7092274137424217 0.3403056505105824
3591 -0.7119637038844756 -1.3044368176178893 0.18239497963416926
3982 -1.0350650044544056 1.1612850690719916 -0.050903520832556164
939 -0.7624814440819915 0.6751126370982555 -0.9309457216384848
419 0.7851242941505868 0.337639150970288 -1.0487304725305417
3194 -0.9473222743768747 0.4052932934243555 -0.7861387378261222
218 0.5550048070493009 -0.9423964864975326 -0.014964838612906976
184 -2.6795026947232277 -2.8965634440144026 0.5919425835583575
2871 1.9372610058021007 -0.25163850233474566 0.1765403466460482
110 0.05560102281621415 0.3809270725820159 0.7020836576189424
82 1.4067485963940358 -1.2289591847188266 0.4642466200465735
2304 -1.5667168934591453 -0.6616024162634321 0.8001752516512134
2694 -0.4939191312013772 2.378910636370245 0.8046475444323399
2526 1.6542297675606557 -0.5919919452233583 -0.11739465512173634
3786 0.649150390910696 0.40703149446518916 -0.42382621001432697
3732 0.8882811449982796 -0.9457833510763763 3.1135316007864504
3540 0.5194451438416746 0.0341973913452415 -1.7001617539979235
1879 0.2307442848272644 -1.0367519389718554 0.8461361885320954
2924 0.0945188303799985 0.02431404882639406 1.5185626677812327
1697 0.8921983300966079 1.9372221974960744 -0.9888320126885806
515 -0.5524651185349053 -0.48072560174452994 0.8362274762595134
21 -0.21977293391270866 -1.1153392290767816 0.03746571597270798
3681 -0.8688765691162896 -0.2502338675782545 -0.34166556281993093
1332 -0.05740352306787438 -0.5787862854494795 -0.2918220013655077
381 -2.3048219826629412 -0.07111021189815002 1.8271281548978773
2129 -1.6575307813618592 -2.0651452741084557 0.5977102625287318
3881 0.09751650490226897 -0.11309239369658947 -1.6412730287494932
2345 -0.030873363007254625 0.16377543510877918 0.8458139687260168
3100 0.9118946793331333 -0.42443873870225424 0.9117437036050953
1542 2.1928159463539942 0.6177159870311625 -0.770879994612188
2813 0.34797130632129547 1.3785462800124713 0.6386491642309977
265 1.0635123640062978 0.8816952224899228 -0.665732842960377
318 -0.8474757361708394 -0.16749194555099353 -0.43613503482845883
3957 0.2536563903591947 0.1075192725351414 0.6265069740756659
617 0.8802112850614456 -0.01760399803496777 1.3378748308465622
2517 -1.5987862591036168 0.445805114762157 -0.09845410508132556
25 -0.11312673012019937 -0.25404356171289344 -0.18942081756311818
40 -0.5100557128051589 1.8657176640406352 -0.35655227466066
363 -0.5870815898798527 -0.24133867920183233 0.025768928218967
1823 0.04875916637699091 0.2958286148923591 0.35256592604274334
3308 -2.85471253269319 -1.0177492323778508 1.2114694275458309
1197 -0.33634312629475255 0.4552362573166743 -0.7299766976405064
3140 0.5396191992859196 1.6051938450312693 0.2622428972313512
1266 0.9321533633180543 -1.9999614275257651 0.8800320061348107
3037 -0.2558901783890238 1.138799383736443 0.6079032707839684
20 -0.17325903417556612 1.5898883377700417 0.8235728840874014
699 -1.6594453627893169 -0.3283640626403847 0.7639447197815991
3930 -0.5401014533427722 1.9279508492033466 1.8034990060998886
866 -0.6663840650478975 0.04501365761400463 0.24223853898607522
2917 1.58778970974785 -2.5684615063410967 0.5103768980913139
37 -1.1744738626599511 0.45742742306712214 -1.578088050424319
2123 -0.017562064992683042 -0.43862179610488644 1.152300326467306
416 0.9007819681369924 1.3000724372957881 1.0739116748941426
1280 1.6248873903867236 -1.37492966438773 -0.2982316664723919
410 -0.18765935753724433 -0.20021489645666585 0.8333694413051491
586 0.4420531733818406 0.6327850774381386 0.27774780918524455
2851 0.8419296242636473 0.6844376046904153 -2.0013376908707703
1630 -0.15849426118958368 3.482224964041054 -0.06262652387494816
1534 -1.130824194053177 0.23291022936573272 -1.2980903002356277
282 1.5405293939384848 -1.560807163035271 -1.5409656763756974
281 0.5257584281363928 -0.33892169990170923 -0.2962234606794888
895 -1.5862335931923535 0.5939591977065083 0.035872596978139375
3787 0.7308046599404517 -0.3036181161593525 0.8722599225009604
867 -1.5815137593465463 0.8114803662562161 -0.9467554574364606
1925 1.918755229618171 0.7196517758483001 -0.7494960695372217
1397 -0.06862974123140493 0.7936671277627206 2.091870602113743
3212 -1.1258914991815934 -1.7686727183892674 1.2204345940738437
1474 1.018748849057121 0.34305394094695313 0.3548568269775537
3058 0.15289997743501446 -0.5650259388889407 -0.8756520992566242
678 1.809081108677239 -1.1346340614347274 -1.4717825650252379
1082 0.3747153392807491 -0.3215326710489139 1.7722796469420325
3256 1.6541362341622818 -1.4912566826209042 0.20096781039140182
2778 -0.14512294929543776 -0.07515382258643355 0.45408562348800924
358 -0.7802418437530515 0.510766276469056 -0.8917023266677007
1765 0.09551189546956182 -1.728321616245624 -0.20968976634153444
2845 0.015058903521498026 0.30396412634043496 -0.5336773022391541
1613 -0.8271716999582786 -1.1079873308768982 0.3039423106260962
726 -0.06394213664245811 0.6053483897045739 0.9248369792450609
3611 -0.6180529162604501 -0.3071636324419974 -1.2878989518962025
2987 -0.3244579449269213 -0.9773441423716827 1.4739482322307549
1561 -1.092958354017429 -0.18382585782805594 -1.163270304438745
1235 0.43070206392557087 0.11611217600779127 -0.03202329679316705
1307 -0.9939451034780906 0.9501722257741834 0.5908027158021432
1466 -1.1293384461008786 -1.2976713409264153 2.1238490049340815
3105 0.6304451304877662 -1.1607241828111452 1.2085009485376674
2542 0.07565569961732876 -1.01582017975297 0.39057414158561654
3495 0.05503368685121911 -0.8300651484171537 0.3404963605285756
1372 2.126897074254642 -0.7762394036870939 0.5809479786376396
2806 1.2034340292056613 1.52990904539341 -1.1869445568025825
571 0.42586115026999655 -1.6313657045003238 0.3276556199333336
3903 1.168029928055165 1.0795204459149894 -1.134577231494756
2074 1.2299140011082126 -0.03138242119311955 0.5714314795613724
1012 0.6830615125828571 -0.6611318763864243 -1.7271093965369777
1196 -1.1132811668253622 0.08820508048542018 -0.1771076145841978
922 1.1224094679347263 0.7388002595904425 -0.6719009057076246
1828 -0.8150704724282464 -0.20852648326658957 -0.6625446146484457
3274 0.01093692948183084 -0.09274496163690367 -0.791793607901059
2472 1.5679649809754823 1.1597795235839456 0.6064663469249405
1344 1.0347358679150405 1.174147326061818 -0.0455939872156423
601 -0.6973273761469153 0.7678630349718628 0.9199137190814844
3508 0.3394137046364581 1.0250580755727634 1.8359471286541929
303 0.25450349399836664 -1.8915822778104998 0.7801669505718448
3769 0.9470223311943028 -1.0085805361699265 -1.2312553485847577
2947 -0.38665968938558753 -1.057683774586203 -2.1998176108890046
1532 -0.2345529793790649 0.6786286028272251 -0.5594741452593499
3541 2.3901439204540886 0.5387049196706598 0.7018639534102774
1813 1.110660144643269 -0.9086366701382802 -0.4901400724175433
3904 -1.153212711680225 0.7713744158681026 -0.3100062218161158
3134 0.28279349487013705 0.6018838261753087 0.7501355630295623
3967 -0.8660873326652329 -1.4091950082407345 -0.2524703457708102
871 -1.0528991219837018 -1.5176193917244567 -1.114269070981967
2855 -0.4576159151422764 -0.15752737028501582 0.40876829776410034
2653 0.12040728152037629 -0.35320318691472397 -0.22783934329477287
3002 -0.3291636513997138 -0.1199093647029448 0.37344997884444386
3228 -0.26455994350170436 -0.7919617111806414 -1.736590670932123
208 -0.13175820828995924 0.5024816105920955 0.1000223913607856
2159 1.3008358411885268 0.47716893986471204 1.3559288175416244
717 1.2120012601761971 0.7881990981777083 1.5346216868491114
2047 -0.4183920343883916 0.7974349087757767 0.1818309430472704
2601 -0.13059243657886827 -2.703692642679558 -1.1586957397770925
3924 0.3348719962467114 0.5694855755447134 1.310084942074784
2738 1.5113160475411052 -1.7144506764650593 1.246888493402387
3141 -0.1032599422688917 -0.40619125446495624 0.870027054662138
3838 0.27836587948460423 3.072066449155743 0.6926542840471784
3630 -1.2559782021172892 -0.16897939926971534 -0.16900903556228244
185 -2.219709350904939 1.7645388220420797 0.5839225016598923
1919 0.7832979313272469 1.0514921778390884 -0.6844468861205596
1247 -1.0406704071692199 0.058807914279816416 1.0147956963718807
547 0.9405598923435713 -0.7765963715934372 0.5260248429038417
2024 1.159469938576783 -0.7143079894680417 0.5137731610058179
1663 0.8380344214252875 -0.6867307045425287 -0.23682529027088148
1957 0.03584152439074016 -0.30302103752481135 -1.0472721856444345
3900 0.5608492219607558 0.1662971828241581 -1.3350689509066516
1804 0.45070766854831457 0.822434753138273 0.2368810571803398
3521 -0.33994514613481314 -0.2622214128497802 -0.9929321449094487
3380 2.379989472745209 0.16574272229410694 1.2367376493871691
918 1.9090829210112197 -0.8016838696775628 1.0914390872849562
2712 -0.18679605869378446 1.3940481030011538 1.9530789160073976
1771 -1.5144461332574546 -0.586437820378306 -1.2829238717572302
637 0.17193462806415333 0.8261938410074754 0.7192438557254471
1424 -0.023566924518477896 -0.2516224176400346 -1.292181801547338
1283 0.29002626603920495 1.531268362685531 -1.805101149596966
2549 1.238177741054935 -0.4345840768225927 -0.5703269913757325
845 0.3082641130171405 -0.6954566039025992 0.6947531292575831
1469 -0.4442499353494551 1.5965975839176811 -0.8035538114524905
2315 -0.3029532289755124 0.34331082504704685 -1.9026090064482217
2696 -0.41572053775768275 -0.16528978675408967 -0.2930358378014925
703 0.966905128832049 -0.3179002805880188 -0.39740047840597564
964 -2.1592575723865703 -0.20618723172266729 0.8824985344470103
1560 0.9726536666076862 0.9289979186393489 -0.2363546734680787
2756 -0.7678319941499577 0.8153289268793685 0.5667002416731338
725 2.0590832581427407 0.3527123159015796 -0.14721493753831713
2441 -0.6711012527778605 0.8413781888400815 -0.5414554654339462
2908 0.9086619246581101 0.011286210997884091 -1.1643359902238768
1311 1.332187755005469 1.2721622756402613 0.014638527488879489
3581 1.9805129661886225 -1.0310437427002437 0.5526022249450327
499 -0.5147852115975826 -0.9938098377702675 -0.8140765550047758
1097 1.2082694654207056 -1.3476380251095417 0.9368047478751566
1004 -0.429340646220828 0.48729573398224624 -1.7614762333404208
570 -0.19538999130410195 -0.06916175550389791 -0.1878650638074372
803 -0.3232872697365821 -1.1837326821975718 1.6447178903644726
2595 -0.9402625921497598 2.4141240057822007 1.1402142173061403
2998 -0.8005609953214681 1.0535311023463882 -1.7691910636900823
3109 -0.41908649876461984 -1.7952574385846998 -0.2991189582259324
2079 -1.3654867706769984 -1.1331141647761958 -1.1507767464319132
1718 -0.43908229464759163 -0.861085430912693 1.0398050656840732
2126 -0.2552554337121012 1.0059420729043353 -0.6157078403362792
3651 1.2450829925570288 0.5473871387432199 0.42871055274084985
1028 1.2303841508549174 -0.06436831449603754 -0.7607422242603864
227 0.9943172649150169 -0.15040402490600363 1.2920856884518916
3439 -1.1577022149497371 -0.10892383309698755 2.7213160850603226
1947 0.8708825580809287 -1.6007161817039324 -1.5917007810503991
1493 -0.2928766084037194 2.671326996781755 0.26383983445946607
3893 0.2471719389261842 -1.8045576058583532 0.7342309983228947
3379 0.2897148130494116 -1.063085295816016 -0.20208919598810246
3690 -0.5017344428972441 1.2134802960874 -2.9003170593221475
3666 -0.7159202699237934 -0.8052305557812424 0.002501619446681017
2792 1.5063951789037942 0.4987167703459298 1.4602168257682873
3607 0.7363569009736963 -0.7712536153113887 -0.4735923554009693
1895 0.5964137956013472 0.4535843901848584 -0.9542105107049894
2239 0.7296152549563798 0.8744048908262732 0.8677375488623871
3299 0.08236013928660564 -0.19885252617142377 -1.034169619936259
3091 1.1867820262986226 0.2173314811017511 -0.9216832231682074
1154 -0.5679848214308799 0.8346966229116787 0.582738090938461
325 0.40861509180170874 0.6379107078956313 1.3674785399040161
926 -0.901832587661174 -0.03196387959931709 -0.28018496662174547
743 -1.2610691086804202 0.7548260885585311 0.047613708479479336
3012 -0.7335101551981499 1.9708680381073909 -1.9738696817266275
1076 -0.7448803103487714 0.7801868047708503 -0.9022635319436522
947 0.10440487976057383 -0.9967302078570709 -1.1920081116830759
3646 -0.6703235058973305 0.7419772276280405 -0.3921044062655225
2739 -0.8463993659130429 -1.0293589647985275 1.2077470111721973
1770 1.705698138448434 -0.5339941806269228 -0.21097574500501165
810 0.42192364286658135 0.11896384390969558 2.8068731453690083
3438 1.012384844619998 -0.007520648767805873 0.2443387860038714
1245 -0.20647345625334945 -0.49616145341566076 -1.6111264374576826
2275 1.1833536449191988 -1.1958406330964835 -0.9827934271024014
2420 -0.20081766886652644 -1.110772075098092 -1.9437532854953026
2603 0.8729007709116465 -0.17252743946993254 -0.4500941341504518
1160 -2.1503022344794647 -0.6319439395910987 0.443796396150071
161 -0.7887216485926744 -0.28039262928577957 1.3115447895358108
2182 -0.7487846465429695 -0.5080662858655787 1.258954646002457
2460 -1.3388866929366232 1.0394644695492483 0.1879626335438562
1061 -0.009810643318649755 -0.9678033807591915 -0.948939020901372
3629 -0.5112165276709001 -0.8449685589320691 0.7760562050119882
1329 1.5407896092159452 0.13883231873589108 -0.27181026139352993
3262 0.6163484595404675 -0.8791540996018135 -0.6875491684912582
3706 -0.5390687277176563 0.9710657525290406 -0.04547576623983037
812 -1.1683810962441916 1.8137860226041038 0.854645486026412
3033 1.1828010242879905 -1.4046505931383209 -0.2984825863972421
1636 1.6973203477180594 -1.4878121049447615 -0.3897888749368631
892 1.4590275035441005 -0.18583688101384718 0.49862163126203696
1451 -0.6548282095096215 0.8253812012652538 0.6220874649738536
723 1.5769555879368145 0.6183135996609306 1.4225836118359534
823 -1.0359005931171628 -0.4236625149804242 0.6071133222389726
2088 -1.399069246603611 -0.4921393054928304 2.526990748451193
1881 0.9661598008524958 0.3541874250705206 -0.7699065073840041
739 -0.4694052553268351 -0.5247387507498193 0.16555149448409587
331 0.22105340396244746 0.08770021058266035 -0.4692593399158996
400 -0.8703160776867461 0.5371412256255661 -0.5702251532903807
3433 -1.5051002035464056 -0.1820302196985462 0.08227778679808602
702 -0.5169841007616882 -0.491766812384932 -0.8437811240029304
1918 -1.4438948934966336 -0.9278729438910541 -1.1826712641681119
2500 0.7452020200709837 1.766564506057148 -1.7723200528031218
2970 -0.3401003584538074 0.8393357657427228 -1.2504002543985948
1693 -0.5964764460588943 0.06229053155894198 0.5985688052610154
1637 -0.6867547000067679 0.4074081679155273 0.7531119981504896
1640 0.36075673761925153 -0.41289811480763244 -0.3527040174688237
2836 -0.4942759049749365 0.805916725546003 -0.7248925458987989
3072 0.8927543679434161 -0.5935421362219737 1.3314108549298243
1682 1.2319931126217618 -1.2729732707172772 1.3632309945751895
3760 0.3831475116599699 0.04170151549123584 -0.26486815752288734
1778 -2.156853648087397 -0.4958270545910415 -0.44269145751201316
3027 1.2892845314868575 -0.4333574581378116 -0.026240294944848
2485 0.44425846262998153 -0.34754246810976047 0.7933953681399054
3394 0.9044197131681638 0.8084323155898133 0.20570429506703125
61 0.9363077052345605 -0.19045185342483104 -0.5137246696295775
548 -0.3473479265947151 0.6861562035588203 0.32421568250014887
1834 -0.602522305962608 -2.0924057044550786 -0.4372248795619955
1904 -0.909312027902031 0.11792918376500316 -3.2385491909507826
88 1.4113673363342736 -1.1476209777180766 0.5439437299429348
2933 1.19420553105237 -1.3284896032694333 -1.3103546050189576
3307 -1.3416007824589191 0.8139622034861512 0.2202586897824207
2600 0.06170392077915748 -0.847528998700223 -2.017145911616366
869 0.8004861345926667 -0.2989765315711016 0.7756752231899114
3457 0.4328955576525188 -0.9989071866244411 -1.2568977755630701
3946 1.167045360367442 0.7086235655208969 0.20152983370702784
2675 1.5290241346232125 0.5415044725649434 0.06455899522673404
2822 0.7262047600300496 -0.14947846336879833 0.3623830812966879
962 -1.002594595455811 -0.6084867659377257 1.6529361617056892
334 -0.41379093519775667 -0.5759808645074851 -0.1801607662331433
615 -0.39894615929010113 -1.7272942844879604 0.318055522898296
3711 0.4244644179204413 1.3123812690714105 1.3909988620655434
2972 -0.983481613326869 -0.2112038881646337 -0.547256542885481
1231 -0.9313208186214571 -2.1400496774903037 0.3838381989772368
2607 -2.0246221972251472 -2.069742415433264 -0.2789577688432406
3687 -2.6744986794961547 0.8251434004119326 0.5330535418183396
3351 0.7477642950180158 0.50525989460639 -0.37098678753474795
2539 0.7681337000114049 1.2291537416772444 0.9182290461557235
2049 -1.7268805637779014 0.4589448905022531 0.9790074281132358
1949 0.14140106385277432 -0.8432668272680512 0.4027396647052841
898 0.5690593200413754 1.8553630122230116 -0.44565162351821985
1339 -1.0814732835724545 -1.336514684192271 0.7563488913378462
1143 -0.7374009182576199 0.007986991771640618 0.1232377679847413
3980 0.4393278214869098 -0.11004900765069628 0.5404465245637665
1003 0.8547451020723494 0.03912729188719348 0.8792194472068472
3527 -1.341461828918632 0.5649926091563398 -0.08764268365263454
3133 0.7762223283245439 -0.3329205972074736 0.4931386079239434
2391 -1.4247008387186568 0.5059175206584708 0.07750161234740552
4 1.5439972827793504 -1.4251504738703398 -1.1618365829680215
899 2.000525976705633 -2.1351981296886224 -1.3211268423004414
2117 0.7202130206461187 -0.9800541524045828 -0.3174035881581955
1315 0.3143979787620463 0.39292416465053864 -0.586082400263083
801 -0.2680820635378475 -1.0728316847157426 0.7388955574910769
411 0.5256213363870843 0.8347513924770534 -0.7495655683406613
3547 0.0135373846086319 -1.48031888278712 0.9441513943869326
2750 -1.194945934096055 -1.0473079979394504 0.47026210902790416
2299 -1.160855962993964 0.13926028103426094 0.7125999395972179
1495 0.6992664142534866 -1.4305641266457583 -0.6620991502289589
2581 -0.28442335200073243 -1.0687727119847414 0.6589578416120295
1781 0.30859635729483026 -0.9052980446716242 0.964557188226364
160 -0.8838759553916837 -1.741697713566756 -0.4231221310772545
1185 -0.9398905616332768 -1.6832761028803045 -0.7428091774532464
301 -0.8288674061480317 0.12183936075168675 0.5769191040345217
908 -1.1398216583720222 -0.5202484894598324 -0.7830411428962273
1098 0.18144142504814897 0.19065592075304696 1.0138982100155318
557 -1.8726442852747256 -1.2772156730467126 -1.174361664846545
1607 1.0141737326089741 0.8684052168501885 -0.04770858208001271
196 -1.2218241535153225 -1.7631985128764822 0.4591612631761996
2461 -1.3819761651751656 -0.19174136661215774 -0.16881657390099825
3 -0.4036214303048616 1.978906930617861 -0.27617276228108956
2093 -0.5472486125558559 -0.7060815055288965 -1.389849106524196
2462 0.5880254309578175 0.09584173443511386 -1.7287775515287809
3847 0.14352215312885894 1.7365930349372498 0.1705814121285856
3717 0.8088140660857173 -1.5739703123921078 -2.3700018506868057
140 0.19016604119856156 0.512306182990365 0.4827174284911835
1861 0.19165360960964678 0.5939020113501414 0.4279725254081738
1973 -0.10404664100078906 -0.8056646592557567 0.417751249578439
2486 1.2018770485757875 0.3351369942849639 1.1801049351271546
2764 -0.19242987686119267 -1.2315748217985076 0.5951111176898596
1987 0.23011053447826255 -1.661571227063515 0.1861127119776704
2158 -0.9610164677611452 0.8220047392276538 -0.5409471414888923
1623 0.9062067719621113 -1.449535028971683 -0.2607283050503914
394 0.636765587977335 -1.019381589416278 -0.21770960527525507
328 -0.2215893499553798 0.19356599497221577 1.0382255121398802
1234 0.6943164424700718 0.49088889164929655 -0.23208715396116253
3805 0.3475214723148599 0.4849476135715182 -0.6556213952044182
2971 0.4155266149666711 -0.189212060553223 -1.0012628450684058
3492 -0.2348581740174025 1.6334598813874788 -0.9751280903167364
3009 -1.1171420523828783 -0.8840187669854774 -0.009646121642322798
3771 -0.02515403784532005 -0.29715507499915783 0.012789016599581406
2781 -0.09899853752892741 -0.3469980988337449 -0.10329748045070354
2863 0.9872222523364379 1.0797095829172427 -1.7775215873230787
1608 0.12389924698291392 -1.4704441536904012 -1.9196709765256303
1390 0.7682301359611803 1.389250837443203 -0.1574971831548673
2679 -0.25753456584123957 -0.3308525704963307 2.019371543275292
3333 -0.4505612729270231 -1.7371208555125006 -0.6101842607162088
822 1.3563973503387836 0.4759866309324853 -0.869162073403586
3579 1.3800929525438044 0.44735293143902005 -0.5352599060713737
148 -0.4165092329169092 1.3582553086136049 0.83964779046605
2278 0.17271276736977018 1.3357129701284731 -0.8403009486026377
2297 -0.19451755240500768 0.5493509602349612 -0.089639824483032
2465 1.8618139107475347 -0.6299627252856511 -0.3151946193865279
3129 0.1438949079826959 -0.0484809304679066 2.2832622246713554
3167 0.3989100255215825 1.375896239806448 0.292169674298145
873 0.05376092286505305 -1.0604914015783709 0.18171888075390857
2774 -1.760547579181081 0.3292267264597972 0.5106731172998992
3693 1.6097605672235176 2.0425578899041006 -1.277297330343031
2085 0.1952942152264106 -0.04484207076024012 0.5094848473461596
3907 0.6131660835104488 -0.020954966579642298 0.8735361514518258
2149 0.1384953283115233 0.9035120557872709 0.7531364898942503
1138 1.6825112526982513 -0.35703413211088875 -0.15252427785118822
3722 -2.6001861823172687 -2.288285234632679 0.6080977405346457
3738 -0.8253733397388355 0.2500475380331139 -0.5857306191043542
3843 -1.090585061899492 -1.8716342328229978 0.21386746500327736
3116 -0.11496846456978475 -0.1354327263647117 -0.5403268594691447
2314 -1.218836446666056 1.4115354880998208 0.32173032445352284
2838 1.2387831570866903 0.7934798223050415 -0.6885524868829926
719 -0.5560643959960996 -0.07006528595617795 -0.4342017761643355
409 -0.37483650541498925 -0.10069924060157542 0.6936052402760758
1629 2.2231998274430262 -1.0818518649744775 1.064686868663648
193 0.936163634980554 -0.5130715196589123 -0.3464366304176867
1176 -0.6472606056739337 0.02093291244543684 -0.04108702251785525
2661 -1.3641584751503122 -1.1509638792381784 -0.2602700746561454
3276 0.7710479330438296 1.039216724677223 -0.2869939104258762
1539 -0.07519558377614587 -1.0877545978615146 -0.48391314350218523
3272 0.20296009590922504 -0.6785188993936805 -0.362348717127966
346 -0.20404795328484074 -0.7051461147983289 -0.39665810998509415
2844 -0.16817925148301638 0.7954804136089343 -0.7662601234805568
3336 -0.5063687097023364 -0.3730205151912879 -1.3902750084801985
2572 -1.0082203732063435 0.14986215027861402 0.8608890222737778
740 -0.15840054290979735 0.3795657893570761 0.30782882914911813
2850 0.5580791236855264 -2.214910354617739 0.7490222904219025
2523 -2.502833282988289 -2.5077114673283205 -1.1562274702361979
1910 -0.39668639397971733 -0.7701195154811545 -0.2749608260568927
2854 0.48693528993580815 -0.45130637962056375 1.3430800020290716
2329 -0.03766811699149327 0.5335464766134562 -3.371514938450242
3104 0.009733044023738919 -0.6946658704131021 -0.42261247942523117
3736 -0.5869328306041098 -1.5750248622624434 1.0213728321771276
1496 0.6097660490730087 0.5955652241332853 -1.3119394790596794
3741 -0.3756547513100445 -1.3348929536473086 0.17198842340745654
686 0.5600566591346956 -0.9773491744823954 0.6296801554872735
556 -1.8185895008834008 2.8186350120418906 -0.6200285356311961
3829 1.0634490219037973 0.05572591611017591 -0.2841128113702608
788 -0.003336451916492604 0.5970780298281179 -0.4172927540999558
3285 1.9792422636439932 -0.22515558878125908 1.2366805746662528
2423 -1.1962222425574436 -0.22288347846421702 0.47196049967239434
1730 -0.562951102729535 0.09386524149678414 -0.41430073286438795
2261 0.6471982741455293 -0.2551528324461716 -0.9280226003187013
494 1.5406555656260423 -1.2258701056611891 1.1547881490201397
2059 -0.9772037514085156 -0.22973546197302946 -1.732163766087389
1021 -0.7699899300787502 0.9410892278282037 0.6331883923247285
3584 0.1974495665505703 -1.1540641446197772 -1.1584319034870803
3067 -0.0002740302298711207 0.06142363727093158 -1.2876724768191226
1976 -0.05774362763198138 -0.21320247875413942 -1.0557918770873134
54 1.823422436097535 -0.5667268993223481 -0.5903098632052626
339 0.8856289221835715 0.6573417976237459 -0.368405089134434
2688 1.388179518800701 0.6436109526855797 -0.6981050049098615
738 -1.6914051465551998 -1.6748706027936304 1.3497090101094487
3637 -1.668013807355976 -0.926351255923083 1.0432185811157118
583 0.17152081805950786 0.33427211106846083 0.8188569134386159
271 -0.3049267450622637 0.2898197187735047 0.11806731384372195
2012 -1.1035146249472014 -0.3661207244795294 -0.4779796748239446
2045 -0.2305313499574773 -0.6382158462908293 -0.4969536387756018
2609 1.0593239727006014 1.3021663374517993 1.1514410004607394
1775 -0.21876904579745107 0.028784346947785207 0.17398880916920614
1603 -1.4700985896908025 -0.5408492018707767 0.863664165341207
3473 1.9539114257732322 -0.6708852355878033 0.20984304571146836
3909 0.021472845910855555 2.0219139349156023 -1.4407804386899
3686 0.5302393680351367 -0.7606163649786465 -0.21648693726890852
2032 0.6233957431305193 0.008152551614003675 -0.4319969500756888
1486 2.0938073917381184 0.38474729385059053 -0.9284393002753681
1156 -0.5866147280967993 1.4651482244468383 0.43853305736197007
574 1.640099224945999 -0.4023695476406906 -0.5106040337582508
2231 -0.6209106460074515 2.0794834105469344 -0.17970760408431302
940 0.897289534134655 -2.062679112991861 0.2023021127566931
912 0.2634287248714432 -1.5561777748189747 0.36175342774775804
751 -0.4975427955557394 0.022681101013282925 0.5095559286563447
1487 -0.04910999993807577 0.37251727881244534 0.6655438629564848
2777 0.6887978713803204 0.21785671978409304 0.3925773960060838
3066 1.1205465698282568 1.0596830751175532 1.6019709980449122
3222 0.34949739094317117 -0.3437303759350476 0.0021676475643579787
1364 0.891118456828948 0.30988072578587456 -0.8229870720931016
3088 -0.6118785905065552 -0.4435598659927179 0.6662731458677249
1836 -1.5130620103762644 -2.06344029517529 -0.7200053785481223
1049 -0.6108068960100378 1.2157775409715244 -0.36359388336808257
3253 0.5645359554907422 1.7759687839914073 -0.35427893099615015
1971 -0.08409879573964484 0.5539143866787195 0.20324653556870356
8 0.12113802987841242 0.25248894381918463 0.7198880327723671
1871 0.5236092407632129 0.19174985160244906 -0.26630512515109
2652 -0.9883063790403708 0.6913048004722253 -0.4026572701363948
2189 -0.5519783113369564 -0.727778685413686 2.0440215908016355
3603 0.7854519790765909 -0.6210886602607207 0.2434502894045331
2274 -0.38009390753346184 0.723517953375596 -0.7107311776022956
3038 -0.9557038178919987 1.6641882255677942 -1.0767902730495285
463 -1.3242242118111056 -0.05772537650140491 1.1811079446238113
1139 0.62144601908828 0.8156180545648188 -0.22939307665429226
2618 0.7997654915522107 0.4601798849520143 -0.08749179437530036
528 0.18159815313537933 0.12657278469262023 1.69412554072512
26 1.5034304917497876 -0.44555098258363746 -0.8840632188021725
3493 0.8601841966921145 -0.8406321322400951 -0.5575356309116577
364 1.307100523116919 -0.12780268553363391 1.1353599942215407
1573 0.19813977808332126 1.3063265785639329 0.6309029126314103
431 1.2271561429729865 -1.8716165251345245 -0.2381684283774325
1657 -1.1962782502549612 -0.5003962874649853 0.553450505048349
157 0.7204737744057996 0.8899940750524693 -2.1059317268562223
399 0.7666265840403395 0.07260247955145645 2.1299183314901713
131 1.449205307929723 -2.1213875687817167 0.9690940456788903
1418 -0.7855597483449912 0.9596620642993764 0.39931633762154406
326 -0.1497908572385225 -1.0023140103543158 0.021386322181315795
3264 0.6123292696314212 1.4947883248799028 -0.9598340545003161
3941 0.5030891190777256 1.4729730197740758 0.7285869508796414
3201 0.4387951562640882 -0.9730200149743934 -0.6688529286496938
1170 0.39442726655357985 0.15259372382893743 -0.9049861218407601
1072 -1.6178033530443108 -2.4427026734275117 -1.234020911775091
3806 0.5393597349381961 -0.9148867565630309 0.546307435574161
2228 -0.6740461357309837 -0.6160950382211716 -0.14390567354030806
2685 1.1563231600728372 0.931948803114853 0.5397942982708028
2683 0.8477021174362408 -1.485845959416342 -0.565902732197508
1000 -1.5193883609132601 0.6615414074245193 -0.12690162039731182
1806 -0.10812991199115639 -1.2411651514368254 0.4435058514004039
486 -1.399157605016519 1.0026430321192614 -0.40418696161132533
280 0.31378499758641193 -0.13498773120960236 -0.2894477904057031
1659 -0.5472021475382736 -0.9869579012363661 -0.19288533453488477
804 -1.3140419349799095 0.7907748016252825 0.60045222878503
2507 0.37717823894959335 0.3287082823097716 -0.5101942799770105
1296 0.08706215030129899 -1.2942434211282792 0.0318814582633446
1214 0.7942988733504556 -1.1166114894643284 0.5780472394643427
2020 -1.9958269880847965 -0.663039925050006 -0.5265170037781737
3826 0.8465553210416163 0.29942853593359686 -0.6869803137920265
1989 0.018781988744064976 -0.07806275719044423 0.5571860359748202
1991 -1.7772086685144532 0.7566852865973362 -0.5743191379168548
2002 0.042508930583541576 0.280770966001169 -0.16812642176566264
2361 -0.9673486110175016 0.064657627110723 -1.0987233701292523
312 -1.5090547487020638 0.3830974246137147 1.2910983105045115
1745 1.2809694938407197 0.8103984306532996 1.7008074321866242
1795 0.4009219351388091 1.152724352833562 0.6535072928609669
3526 -1.0525814260131412 -1.4825793539192553 1.9149516502530661
1870 -1.0759657482448277 -0.6429895562399953 -1.2119377276112981
3402 0.7338608166254122 0.4124852011479663 0.3073369470092799
2065 -1.765517861076491 0.04315500575437676 2.1108955683656054
2780 -0.460079208348847 -0.7266523730924512 0.5150224209433228
667 -0.13854237244346632 1.0996321779019358 0.5849044838110824
2880 -1.5427181691249852 -0.5659786570007153 -0.8275171478872766
2689 -0.30062167585096017 0.7989905934657929 1.0587733894202596
141 -1.7280682350979986 0.2871569050237378 -0.5447798566888713
3677 1.9245771206207676 1.8685679194070937 1.0384775871205452
1409 -0.3550682122691516 0.4510428164321715 -1.2355706758128264
1762 1.156897409332381 0.3150166434191052 1.139335122866797
646 1.3700722889642438 0.6211993500739721 -0.5295732538509591
3279 -0.3999751556261413 -1.894016062087886 -0.7659468453820024
1953 -0.23895073720381552 -0.4222024311242599 0.4698146975007685
1690 -1.347447721735441 0.1277675107417336 -1.0391490937495191
2576 0.2075595257546045 -0.6901512477310044 -0.531284094163953
2701 0.9560318185018337 -0.11218058572629583 1.1571325626097617
3756 1.8387541378178462 0.38245286561745245 -0.3304730361301155
1253 1.6866142153956034 1.6147744641794912 1.261483153211975
1126 -1.0874806025181414 -0.6424195318198134 -0.018800787611366263
3800 -0.4663965595647288 -0.3188804943185756 1.0670254236278214
3189 -0.7501100253399576 1.7543045568377622 0.2174626484334259
2805 0.3956083327382541 -1.3437051435458864 1.097293439745459
2102 2.0125835375510355 -0.9548765416909615 0.7450655807525086
143 0.4556363788223563 1.7160583109478753 -0.27284161540864016
2336 0.288682079764033 1.347027567222152 -1.033251959211722
3851 -1.5769843632091407 0.12824430007696408 0.8735181924255239
632 0.213049046573592 0.24016516840889773 0.027263379438144136
1147 -1.5986849268593972 1.5299350940469032 -0.690478943196476
308 -0.5982786031245151 1.6132696399086488 1.0999465492684395
2475 -0.9985085048892267 -0.3359031479618751 1.548521649314067
1954 1.0528584419609952 0.8913599997419763 -0.7069086009533099
1278 1.2680151431080189 -2.900462201249526 1.2716647631157822
2885 0.9669492947993453 -0.8666286163621651 1.316364884128401
854 0.0301779882421453 -1.550046321357345 0.2800039811679092
3346 -0.3450113469294228 0.0744749971210008 -0.20808935504645495
3334 0.9470667553780091 -0.13605189717143298 0.8790042253503496
1403 -0.42182077926598643 1.3095773958155306 1.6367290263089682
1905 -0.23070220652793905 -0.6509889084065877 0.7071200649438448
2900 0.9184393515516963 1.2470554591239147 0.3561398550206338
307 0.22543860102887872 2.3980274923910705 -0.23525241676168168
3364 1.2045343049112804 -2.057630258541622 2.417947990932027
985 1.1755929638997267 -2.1757342569521274 -0.17459096994364334
1180 -1.0685832875298358 0.2545659145514267 -1.4338442885598772
2291 1.3553817714758825 1.2237366003900871 -0.0912185477654906
1852 1.090692801670302 0.12337249764663177 -0.44848548246477826
3497 0.5617961747945137 0.22729409675373405 -0.6451213920443262
3532 -0.729813835156448 -0.11634410988748654 -1.3983964282247447
3549 1.0287930897080915 1.484732164302439 -0.6810185114456576
374 0.5201817384745954 -0.8876245112405703 -0.663527023517175
63 -0.6494489385397113 0.6116960904916203 -1.9958177399238455
3036 0.20154528000088778 -1.684519745333828 -0.611631672798825
3499 -0.79546536164741 -0.8209752830574935 -0.326569654055129
1116 -1.2101451243682542 0.4333709252227953 0.18247522644098788
3330 -0.05950225185863825 -0.9269176793991354 0.0351932386616108
1318 -1.6981921692554083 -0.0011097130287839136 -1.1526406558148874
718 1.0766008025291245 -0.11088367092867346 -0.3648341812545856
3179 0.18687257729919587 0.6874781457415602 -0.07014065604197295
978 -1.0247358895111371 -0.24935075797707898 -1.7278200149598446
1721 -0.6349125600090892 -0.5532578703634771 -0.4093657745298702
485 -0.4754925373144679 -1.6782400484916982 0.03322827167552155
2723 0.5239489903741834 2.140826475558108 -0.06103610559591157
635 0.065141902866207 0.4212952769730389 0.5610197896593562
197 1.6760481335859836 -0.695992397359403 -0.748091181173447
1222 -1.138146746723917 -0.9298380861103354 0.10133445984669345
2375 -1.1808518593831276 0.31028418199990715 -1.3447452876561625
2288 1.7856841922772535 -1.0304637880741103 1.1174064933306767
1602 -0.35781199793765545 2.091384356841956 1.0332559944027218
3349 -0.6596867714090932 0.5129443559880862 2.6884817504261163
137 0.40447978284672415 -0.35284809441419923 -0.46328175805359434
2684 -0.4336039826198586 1.8735912654811755 0.5335462251100429
1540 -0.281982928228197 -0.15749409099079723 1.955676128780086
831 -0.8529047437325988 -0.6212724424731774 0.2572686445490675
1042 0.42236054151240515 0.3290039235910686 -0.4555670144312776
1734 -0.30809908179305895 1.8190116705202986 0.22577658230144576
2081 -0.6717700654370176 0.01925661338608041 0.3090490278048319
1740 1.824866820257061 0.0337772064604343 1.6190131930906337
498 0.8760700936969154 0.37454249878224927 -0.0762970643664524
16 0.07022662150015274 0.005970122552464 0.05158261989728144
276 0.48570449711810554 1.0221895030722175 0.30156233292741863
91 0.01625423002805542 0.038827326942144254 -0.5232614094427558
868 -0.9969102089087661 0.9030093290998142 -0.7308367053217258
2879 -0.22183656470161928 -1.7851507511233466 0.3604828163384573
2366 0.3758031428515366 -1.4290526135410508 0.24922224814045152
1821 -0.77912123152769 0.4989762468710769 0.6923806365540581
3112 0.5038090251471491 -0.500720457891612 1.447996161619488
1367 0.49907869470076754 0.8277204729219173 -1.014720294052177
2745 0.6598297933045443 -0.8271934499606893 -1.040017238188921
1078 -0.31664824351652676 1.4722077062845376 -0.44911055162768726
3462 -0.8414934067400844 0.23297667739898048 -0.25836733655997757
1240 0.6681027984841723 1.2492099195197495 -1.8372721253945064
92 -1.9235566614795494 -0.5384389305773479 1.8387568492856472
517 -0.8950557776993128 0.9736734458204196 0.218699334179109
273 -0.1427079358889176 0.5790902716704155 -1.0838721372441773
378 1.3084572953140419 0.8874962062066838 0.6122293823146564
1962 0.8815889362209492 -2.297087679773603 0.8177180764576496
811 -1.3806620292154066 2.62508284904217 -1.5834378008074177
1672 0.9948084627327252 0.8946996293622607 0.5926151625120177
3781 -2.5998728083943994 -0.10705039057107629 0.10986211760474769
3119 -0.34263549407865646 -0.43373398399091023 0.5915486588768564
327 -0.535493219019816 0.8122933100773857 -0.6626832119649647
1862 1.1314759714271858 -1.1532168634645794 -0.032209451225857874
790 0.08656583414588402 -0.6015391068363305 1.586460860925437
1506 0.7413424982704535 0.4429820871763234 0.4414614706215835
487 -0.6551808679932865 -0.9669676381362978 -0.7612464284435437
722 -0.9223341182614275 1.6463261171433412 -0.06680016867562821
3724 1.9178671653924027 1.0897708620422202 1.1469723420775753
1254 -0.31866260788398854 1.34074665590694 -0.5954510253863805
2069 1.0261541455054806 -1.0270979681011547 -0.5515105244292938
3329 -0.28381065894494584 1.4513532232788944 0.44040542620923273
1909 0.24228127058394158 -1.4060857278463446 -0.5300969091018283
3610 -1.205958401959228 -0.17929663737042703 -0.040153196391208595
3571 -0.7217214049299424 0.3666112891792773 0.4829038714040776
117 -0.14968366004763572 -0.36136046622428036 1.6432537533687845
391 1.2491037187414178 -0.507202445638541 0.3100626513172504
2867 -1.611939178625721 1.0589835299901227 1.7688858957575186
329 -0.022865323437906662 -0.6850495826512775 1.1220427954840666
525 1.2926174460318003 0.024728345776973203 -0.5265420380295807
3068 0.20041368885574315 0.8175017963941245 0.20994323498245404
1631 -1.3353029620197703 -0.511464799395864 -0.1578072064296011
2318 -0.7103974444970774 -1.1342208784894643 -0.07632836754065205
1150 1.8081008137940162 -1.9930799181864638 1.039837609552011
1867 0.8537066032628859 -2.5178614417265672 0.23157215044659077
3952 -0.3759468111189765 0.41724713683726466 1.768792747835742
3031 -0.02346477391154746 -1.2153816016410746 -0.9956556825046617
1354 0.28818710666131947 -1.3883371334360997 -1.6698405458553012
2632 0.1260091825306303 2.9918536113264045 0.7198281444253475
2914 -0.5949045480101441 0.6591598556793601 0.22277179221570037
2710 -1.1116587714560024 0.6477823734345375 -0.707192927608394
3578 0.3779844450738496 -1.786839321610848 -0.05349802967674018
2412 0.6075525525139783 -1.7843078921219686 0.6026810614489914
1052 0.6795435755739963 0.050435995304835696 -2.6648769491812576
907 1.0365244403956029 0.09387421777753838 0.16304841204352197
375 0.3496816467486931 1.9193734144458268 0.33514510520096885
1356 0.8569460595443613 -1.311037232521268 -0.6112742283432135
3613 -1.6282873851856816 -1.1273588828534786 0.01690705551703843
1858 2.0358728745037213 0.7547737752795322 -1.6385654026457614
162 -1.3639787786760855 0.1920098144248392 -1.2315298680801048
1902 -0.2149461122662319 0.19930725877732464 2.237646884515884
758 -1.1720343299004568 1.1801626386256308 -0.33403369266501753
1337 -0.2522028362723379 1.688670012239113 0.13405830634049568
3556 -0.9389704861296838 -0.8616731594745343 0.8661254213774909
3322 1.0046047530733841 1.9448062009411764 0.3801730745838655
1381 1.6407590336322806 -0.6861160027267651 0.7766617903407261
1620 1.0033834380531623 -0.08865787664114562 -0.07420408642240336
2826 -0.3705251015198212 -0.23213315856542485 -1.4488895412911653
1043 1.3553839376757182 -0.09247058341144519 -0.869900289117008
3560 -0.9714311559561253 -0.6634664876742414 -1.1869865774464374
2901 0.48103252309319466 -0.16240188866833213 -0.06584725360932228
2819 0.8605344970841279 1.4234713694090309 -1.093467037827565
3437 -1.0657109568260121 0.934094925912191 1.3571080875271486
2570 -2.924726269410433 2.5983755646646425 -1.775540379152982
2176 0.9581431272844891 0.45633868726660565 0.9796328398079226
3996 -0.987826286968489 -1.3340630864337473 -0.7650119427481809
3512 -1.5204194959803916 -0.2932899745248331 -0.30970347357349887
