LAMMPS (7 Feb 2024 - Update 1)
OMP_NUM_THREADS environment is not set. Defaulting to 1 thread. (src/comm.cpp:98)
  using 1 OpenMP thread(s) per MPI task
# ============================================================
# Lennard-Jones FCC crystal
# Pressure-driven melting by decompression
#
# Protocol:
#   1. Create FCC crystal at initial rho* = 1.2
#   2. Minimize the crystal
#   3. Initialize velocities at T* = 1.0
#   4. Equilibrate at T* = 1.0 and P* = 8.0
#   5. Slowly decrease pressure from P* = 8.0 to P* = 1.0
#   6. Monitor density, energy and Q6 during melting
#
# Reduced Lennard-Jones units:
#   epsilon = 1
#   sigma   = 1
#   mass    = 1
# ============================================================


# ============================================================
# 1. INITIALIZATION
# ============================================================

clear
OMP_NUM_THREADS environment is not set. Defaulting to 1 thread. (src/comm.cpp:98)
  using 1 OpenMP thread(s) per MPI task

units           lj
dimension       3
boundary        p p p
atom_style      atomic

timestep        0.005


# ============================================================
# 2. INTERACTION STYLE
# ============================================================

pair_style      lj/cut 2.5


# ============================================================
# 3. CREATE FCC CRYSTAL
# ============================================================

# For "units lj":
#
# lattice fcc 1.2
#
# means an FCC lattice with reduced number density rho* = 1.2.

lattice         fcc 1.2                                  orient x 1 0 0                           orient y 0 1 0                           orient z 0 0 1
Lattice spacing in x,y,z = 1.4938016 1.4938016 1.4938016


# Number of conventional FCC unit cells in each direction

variable        nx equal 10
variable        ny equal 10
variable        nz equal 10


# Create simulation box

region          box block                                0 ${nx}                                  0 ${ny}                                  0 ${nz}                                  units lattice
region          box block                                0 10                                  0 ${ny}                                  0 ${nz}                                  units lattice
region          box block                                0 10                                  0 10                                  0 ${nz}                                  units lattice
region          box block                                0 10                                  0 10                                  0 10                                  units lattice

create_box      1 box
Created orthogonal box = (0 0 0) to (14.938016 14.938016 14.938016)
  1 by 1 by 1 MPI processor grid

create_atoms    1 box
Created 4000 atoms
  using lattice units in orthogonal box = (0 0 0) to (14.938016 14.938016 14.938016)
  create_atoms CPU = 0.001 seconds


# ============================================================
# 4. MASS AND LJ PARAMETERS
# ============================================================

# These commands MUST come after create_box

mass            1 1.0

# pair_coeff:
# atom types = 1 1
# epsilon = 1.0
# sigma   = 1.0

pair_coeff      1 1 1.0 1.0


# ============================================================
# 5. NEIGHBOR LIST SETTINGS
# ============================================================

neighbor        0.3 bin
neigh_modify    delay 0 every 1 check yes


# ============================================================
# 6. ENERGY MINIMIZATION
# ============================================================

thermo          100

thermo_style    custom                                  step                                    atoms                                   temp                                    press                                   pe                                      etotal                                  vol                                     density


min_style       cg

minimize        1.0e-8 1.0e-10 10000 100000
Generated 0 of 0 mixed pair_coeff terms from geometric mixing rule
Neighbor list info ...
  update: every = 1 steps, delay = 0 steps, check = yes
  max neighbors/atom: 2000, page size: 100000
  master list distance cutoff = 2.8
  ghost atom cutoff = 2.8
  binsize = 1.4, bins = 11 11 11
  1 neighbor lists, perpetual/occasional/extra = 1 0 0
  (1) pair lj/cut, perpetual
      attributes: half, newton on
      pair build: half/bin/atomonly/newton
      stencil: half/bin/3d
      bin: standard
Per MPI rank memory allocation (min/avg/max) = 5.225 | 5.225 | 5.225 Mbytes
   Step        Atoms         Temp          Press          PotEng         TotEng         Volume        Density    
         0        4000   0              11.924752     -7.6089166     -7.6089166      3333.3333      1.2          
         1        4000   0              11.924752     -7.6089166     -7.6089166      3333.3333      1.2          
Loop time of 0.00437921 on 1 procs for 1 steps with 4000 atoms

99.9% CPU use with 1 MPI tasks x 1 OpenMP threads

Minimization stats:
  Stopping criterion = energy tolerance
  Energy initial, next-to-last, final = 
     -7.60891664187216  -7.60891664187216  -7.60891664187216
  Force two-norm initial, final = 1.2336246e-11 1.2334332e-11
  Force max component initial, final = 3.2363001e-13 3.3285527e-13
  Final line search alpha, max atom move = 1 3.3285527e-13
  Iterations, force evaluations = 1 2

MPI task timing breakdown:
Section |  min time  |  avg time  |  max time  |%varavg| %total
---------------------------------------------------------------
Pair    | 0.0041773  | 0.0041773  | 0.0041773  |   0.0 | 95.39
Neigh   | 0          | 0          | 0          |   0.0 |  0.00
Comm    | 4.146e-05  | 4.146e-05  | 4.146e-05  |   0.0 |  0.95
Output  | 0          | 0          | 0          |   0.0 |  0.00
Modify  | 0          | 0          | 0          |   0.0 |  0.00
Other   |            | 0.0001605  |            |       |  3.66

Nlocal:           4000 ave        4000 max        4000 min
Histogram: 1 0 0 0 0 0 0 0 0 0
Nghost:           5841 ave        5841 max        5841 min
Histogram: 1 0 0 0 0 0 0 0 0 0
Neighs:         268000 ave      268000 max      268000 min
Histogram: 1 0 0 0 0 0 0 0 0 0

Total # of neighbors = 268000
Ave neighs/atom = 67
Neighbor list builds = 0
Dangerous builds = 0


# Start MD timestep numbering from zero after minimization

reset_timestep  0


# ============================================================
# 7. INITIAL VELOCITIES
# ============================================================

# Generate velocities corresponding to T* = 1.0
#
# Random seed = 10917

velocity        all create 1.0 10917                     mom yes                                  rot no                                   dist gaussian


# ============================================================
# 8. STRUCTURAL OBSERVABLES
# ============================================================

# Per-atom potential energy

compute         poteng all pe/atom


# Steinhardt Q6 bond-orientational order parameter
#
# Use the 12 nearest neighbors.
#
# For a well ordered FCC structure Q6 should be relatively high.
# In the liquid Q6 should decrease significantly.

compute         orient all orientorder/atom                     degrees 1 6                                     nnn 12                                          cutoff 2.0


# Average Q6 over all atoms

compute         Q6 all reduce ave c_orient[1]


# ============================================================
# 9. VARIABLES FOR OUTPUT
# ============================================================

variable        temperature equal temp
variable        pressure    equal press
variable        potential   equal pe
variable        volume      equal vol
variable        rho         equal density


# ============================================================
# 10. THERMODYNAMIC OUTPUT
# ============================================================

thermo          1000

thermo_style    custom                                  step                                    temp                                    press                                   pe                                      ke                                      etotal                                  vol                                     density                                 c_Q6


# ============================================================
# 11. WRITE OBSERVABLES TO FILE
# ============================================================

# Average over 10 measurements:
#
# sample every 100 timesteps
# write every 1000 timesteps
#
# Columns in melting_observables.dat:
#
# timestep
# T*
# P*
# PE
# volume
# density
# Q6

fix             observables all ave/time                        100 10 1000                                     v_temperature                                    v_pressure                                       v_potential                                      v_volume                                         v_rho                                            c_Q6                                             file melting_observables.dat


# ============================================================
# 12. TRAJECTORY OUTPUT
# ============================================================

# Save one configuration every 1000 timesteps.
#
# The trajectory contains:
#   atom ID
#   atom type
#   position
#   velocity
#   per-atom potential energy
#   per-atom Q6

dump            trajectory all custom 1000                      melting.lammpstrj                                id                                               type                                             x y z                                            vx vy vz                                         c_poteng                                         c_orient[1]

dump_modify     trajectory sort id pbc yes


# ============================================================
# 13. EQUILIBRATION OF FCC CRYSTAL
# ============================================================

print "======================================================"
======================================================
print "FCC EQUILIBRATION"
FCC EQUILIBRATION
print "T* = 1.0"
T* = 1.0
print "P* = 8.0"
P* = 8.0
print "======================================================"
======================================================


# NPT simulation:
#
# Temperature:
#     T* = 1.0
#
# Pressure:
#     P* = 8.0
#
# Tdamp = 1.0
# Pdamp = 10.0
#
# "iso" means that the box changes isotropically.

fix             equil all npt                                   temp 1.0 1.0 1.0                                iso  8.0 8.0 10.0


# Equilibration:
#
# 200000 steps * 0.005 = 1000 LJ time units

run             200000
Generated 0 of 0 mixed pair_coeff terms from geometric mixing rule
Neighbor list info ...
  update: every = 1 steps, delay = 0 steps, check = yes
  max neighbors/atom: 2000, page size: 100000
  master list distance cutoff = 2.8
  ghost atom cutoff = 2.8
  binsize = 1.4, bins = 11 11 11
  2 neighbor lists, perpetual/occasional/extra = 1 1 0
  (1) pair lj/cut, perpetual
      attributes: half, newton on
      pair build: half/bin/atomonly/newton
      stencil: half/bin/3d
      bin: standard
  (2) compute orientorder/atom, occasional
      attributes: full, newton on
      pair build: full/bin/atomonly
      stencil: full/bin/3d
      bin: standard
Per MPI rank memory allocation (min/avg/max) = 5.67 | 5.67 | 5.67 Mbytes
   Step          Temp          Press          PotEng         KinEng         TotEng         Volume        Density          c_Q6     
         0   1              13.124452     -7.6089166      1.499625      -6.1092916      3333.3333      1.2            0.57452426   
      1000   0.72808636     8.2120975     -7.0427206      1.0918565     -5.9508641      3641.2376      1.0985276      0.53741421   
      2000   1.0296891      7.963587      -6.630575       1.5441476     -5.0864274      3779.7221      1.0582789      0.50962884   
      3000   0.98350151     8.0905061     -6.7012801      1.4748835     -5.2263967      3750.5751      1.0665031      0.51542347   
      4000   1.0080736      7.8969057     -6.6616804      1.5117324     -5.149948       3772.6324      1.0602676      0.51298297   
      5000   1.0132356      7.9453329     -6.6507725      1.5194735     -5.131299       3772.989       1.0601674      0.5128412    
      6000   1.0006797      7.9569118     -6.6966841      1.5006442     -5.1960399      3759.1479      1.0640709      0.51597932   
      7000   1.0155769      7.8744413     -6.6791357      1.5229846     -5.1561512      3769.2841      1.0612095      0.51423888   
      8000   0.99932401     8.0503942     -6.6394572      1.4986113     -5.1408459      3771.102       1.0606979      0.51216102   
      9000   0.99533138     7.9921867     -6.6805578      1.4926238     -5.187934       3761.6139      1.0633734      0.51401699   
     10000   0.98198695     8.1357971     -6.6286934      1.4726122     -5.1560812      3768.266       1.0614962      0.51294891   
     11000   1.0007997      8.0129393     -6.6440805      1.5008242     -5.1432562      3771.5396      1.0605748      0.51259922   
     12000   0.999168       7.962675      -6.6906273      1.4983773     -5.19225        3761.0944      1.0635202      0.51572988   
     13000   0.99059051     8.0965399     -6.6436051      1.4855143     -5.1580908      3766.7989      1.0619096      0.51264609   
     14000   0.9995454      8.0298542     -6.6371365      1.4989433     -5.1381933      3772.7193      1.0602432      0.51208405   
     15000   1.0064031      7.9052117     -6.6985801      1.5092272     -5.1893529      3762.0517      1.0632496      0.51515952   
     16000   1.0083664      7.9747905     -6.6760916      1.5121715     -5.1639202      3764.9832      1.0624217      0.51449013   
     17000   1.0022458      8.0074881     -6.6384607      1.5029928     -5.1354679      3773.6181      1.0599907      0.5125211    
     18000   0.97703161     8.0933546     -6.6401352      1.465181      -5.1749541      3767.0582      1.0618365      0.51311514   
     19000   1.0095787      7.9638499     -6.7001303      1.5139895     -5.1861408      3758.5161      1.0642498      0.5149311    
     20000   0.99111591     7.815677      -6.6710557      1.4863022     -5.1847535      3773.1464      1.0601232      0.51284877   
     21000   1.0108588      7.927964      -6.6549719      1.5159092     -5.1390627      3773.1297      1.0601279      0.51187916   
     22000   0.99183903     8.2889996     -6.6367225      1.4873866     -5.1493359      3758.4407      1.0642712      0.51365722   
     23000   0.99336899     7.6596333     -6.682647       1.489681      -5.192966       3778.6859      1.0585691      0.51425004   
     24000   1.0022797      7.8202967     -6.678293       1.5030437     -5.1752493      3772.0061      1.0604437      0.51374864   
     25000   0.99260278     8.4442766     -6.6495465      1.4885319     -5.1610146      3747.4573      1.0673904      0.51419482   
     26000   0.98325914     7.9425814     -6.6595689      1.47452       -5.185049       3769.7347      1.0610826      0.51325321   
     27000   0.99465852     7.9150377     -6.6359123      1.4916148     -5.1442975      3778.4215      1.0586431      0.51098631   
     28000   1.0049816      8.1035356     -6.6376056      1.5070955     -5.1305102      3768.7049      1.0613726      0.51208798   
     29000   0.98375284     8.0226133     -6.658202       1.4752603     -5.1829416      3765.672       1.0622274      0.51346754   
     30000   1.0033695      7.9288792     -6.6678456      1.504678      -5.1631676      3770.1125      1.0609763      0.51459419   
     31000   0.99291003     8.0399652     -6.6456726      1.4889927     -5.1566799      3768.9469      1.0613044      0.51239028   
     32000   0.99075971     7.9471328     -6.6780894      1.485768      -5.1923214      3764.7985      1.0624738      0.51380415   
     33000   1.026064       7.8872952     -6.6606395      1.5387112     -5.1219283      3774.7421      1.059675       0.51345768   
     34000   1.0093722      8.114369      -6.6547981      1.5136798     -5.1411183      3763.8815      1.0627327      0.51219527   
     35000   0.98700233     8.131571      -6.6730406      1.4801334     -5.1929072      3756.2411      1.0648944      0.51531903   
     36000   0.99624943     7.7684368     -6.6874111      1.4940005     -5.1934105      3772.0254      1.0604382      0.51377338   
     37000   1.0044334      7.7771032     -6.6707766      1.5062735     -5.1645032      3776.6975      1.0591264      0.5133778    
     38000   0.9919785      8.306184      -6.6384466      1.4875958     -5.1508508      3757.571       1.0645175      0.51234661   
     39000   1.0034084      7.770403      -6.6762485      1.5047363     -5.1715122      3774.7406      1.0596755      0.51508389   
     40000   1.0134725      8.2724592     -6.6760124      1.5198288     -5.1561837      3750.78        1.0664448      0.51514274   
     41000   0.99246104     7.9602106     -6.6505607      1.4883194     -5.1622413      3772.4629      1.0603153      0.51236674   
     42000   0.9982161      7.9061139     -6.6921463      1.4969498     -5.1951965      3763.7053      1.0627825      0.51532247   
     43000   1.0128545      8.1923781     -6.6423339      1.5189019     -5.123432       3763.9862      1.0627032      0.51387663   
     44000   0.99657619     7.69504       -6.6645479      1.4944906     -5.1700573      3782.3491      1.0575439      0.5127969    
     45000   0.99042243     8.235142      -6.6381531      1.4852622     -5.1528909      3761.6301      1.0633688      0.51218375   
     46000   0.98933392     7.8143078     -6.6540841      1.4836299     -5.1704542      3777.8851      1.0587935      0.51173896   
     47000   1.0058612      8.0669431     -6.6743319      1.5084147     -5.1659173      3760.7118      1.0636284      0.5153063    
     48000   1.0185462      7.9576773     -6.6694657      1.5274374     -5.1420284      3768.2363      1.0615045      0.51343477   
     49000   0.98219939     7.8330044     -6.6645092      1.4729308     -5.1915784      3773.3903      1.0600547      0.51323546   
     50000   0.98924363     8.3848948     -6.6562922      1.4834945     -5.1727977      3749.1077      1.0669205      0.51445756   
     51000   1.0110122      7.8655524     -6.6813174      1.5161391     -5.1651783      3769.1165      1.0612567      0.51470807   
     52000   0.99928129     7.8788833     -6.6826182      1.4985472     -5.184071       3767.6485      1.0616702      0.51238126   
     53000   1.0228255      8.1412135     -6.6593739      1.5338547     -5.1255192      3761.1909      1.063493       0.51367276   
     54000   0.9888074      7.7962984     -6.6880641      1.4828403     -5.2052238      3769.3882      1.0611802      0.51415549   
     55000   0.98385117     8.0349729     -6.6781591      1.4754078     -5.2027513      3760.1157      1.0637971      0.51405435   
     56000   1.0208653      7.9964124     -6.6678315      1.5309152     -5.1369164      3766.4507      1.0620078      0.51376556   
     57000   1.0216036      8.0249694     -6.6697567      1.5320222     -5.1377344      3764.6165      1.0625252      0.51385242   
     58000   0.99469947     7.9046457     -6.6825488      1.4916762     -5.1908726      3766.3721      1.06203        0.51416021   
     59000   0.97439012     8.2142053     -6.6551426      1.4612198     -5.1939228      3756.7204      1.0647585      0.51380513   
     60000   1.0096921      8.1321024     -6.6558751      1.5141596     -5.1417156      3763.1147      1.0629493      0.51504511   
     61000   0.9825247      8.029135      -6.6371169      1.4734186     -5.1636983      3771.2426      1.0606584      0.51106754   
     62000   0.98834356     8.0817097     -6.6521076      1.4821447     -5.1699629      3765.1489      1.062375       0.51263838   
     63000   0.99935992     8.2516448     -6.6723633      1.4986651     -5.1736981      3751.8274      1.0661471      0.51515384   
     64000   0.99719835     8.0075105     -6.6627295      1.4954236     -5.1673059      3766.8918      1.0618834      0.51451543   
     65000   1.0031749      7.7480884     -6.6549942      1.5043861     -5.1506081      3782.3036      1.0575566      0.51211904   
     66000   1.0185727      7.9203177     -6.6747394      1.5274771     -5.1472622      3768.9385      1.0613068      0.51390412   
     67000   0.97058378     8.2725839     -6.6707937      1.4555117     -5.215282       3749.6483      1.0667667      0.51529403   
     68000   1.002566       7.9731983     -6.6623365      1.5034731     -5.1588634      3768.5458      1.0614174      0.51346277   
     69000   0.99596525     7.7815601     -6.6665099      1.4935744     -5.1729355      3776.9956      1.0590428      0.51257343   
     70000   1.0137228      8.2577887     -6.6683136      1.520204      -5.1481096      3753.2001      1.0657572      0.51416267   
     71000   1.0147198      7.689408      -6.6953309      1.5216991     -5.1736318      3774.7795      1.0596645      0.51433126   
     72000   0.98782254     8.2497854     -6.660708       1.4813634     -5.1793446      3753.7949      1.0655883      0.51357654   
     73000   0.99593124     8.0041046     -6.6657863      1.4935234     -5.1722629      3765.8576      1.062175       0.51364764   
     74000   0.98737891     7.7406791     -6.6907982      1.4806981     -5.2101001      3772.4545      1.0603176      0.51503632   
     75000   1.0217065      8.0418143     -6.6538744      1.5321766     -5.1216978      3768.4172      1.0614536      0.51232314   
     76000   1.013613       8.0034347     -6.658377       1.5200394     -5.1383376      3768.5911      1.0614046      0.51334942   
     77000   0.99830631     8.0802116     -6.6653721      1.4970851     -5.168287       3761.3678      1.0634429      0.51260479   
     78000   0.98140821     8.0419319     -6.634679       1.4717443     -5.1629347      3771.4423      1.0606022      0.51255099   
     79000   1.0007037      8.2493128     -6.6138789      1.5006802     -5.1131987      3767.5367      1.0617017      0.51173854   
     80000   0.99663918     7.7700081     -6.6958884      1.494585      -5.2013033      3769.8596      1.0610475      0.51459817   
     81000   0.99799342     8.0151828     -6.6674804      1.4966159     -5.1708646      3764.9379      1.0624345      0.51382553   
     82000   1.0141692      7.914396      -6.6713636      1.5208735     -5.1504901      3769.0751      1.0612683      0.51560805   
     83000   0.98642333     7.9990721     -6.6727908      1.4792651     -5.1935257      3763.7004      1.0627838      0.51553508   
     84000   0.99996399     8.007061      -6.6872159      1.499571      -5.1876449      3760.13        1.063793       0.51565711   
     85000   1.0075738      7.9187814     -6.6654862      1.5109829     -5.1545033      3770.5678      1.0608482      0.51338331   
     86000   0.98445322     8.1613394     -6.6402151      1.4763107     -5.1639044      3763.7603      1.0627669      0.51314794   
     87000   0.99387499     7.9117842     -6.6855445      1.4904398     -5.1951047      3765.1208      1.0623829      0.5147595    
     88000   1.0214528      8.247778      -6.6371355      1.5317961     -5.1053394      3762.7079      1.0630642      0.51213169   
     89000   0.99108311     7.6826924     -6.6781103      1.486253      -5.1918572      3778.5154      1.0586168      0.51293151   
     90000   0.98890146     8.2334861     -6.6399175      1.4829814     -5.1569362      3760.433       1.0637073      0.51373039   
     91000   1.0073976      8.3524867     -6.6525297      1.5107186     -5.1418111      3752.2032      1.0660404      0.51429866   
     92000   1.0000198      7.7200192     -6.6828396      1.4996547     -5.1831849      3775.4017      1.0594899      0.51403721   
     93000   0.98930127     8.1456036     -6.6808404      1.4835809     -5.1972595      3753.4264      1.0656929      0.5150341    
     94000   1.0090819      8.1835319     -6.6578185      1.5132444     -5.1445741      3759.9397      1.0638469      0.51393211   
     95000   0.98191449     7.806114      -6.6717467      1.4725035     -5.1992432      3773.2147      1.060104       0.51428577   
     96000   1.0020905      8.0560271     -6.6312499      1.50276       -5.12849        3772.8304      1.060212       0.51094543   
     97000   0.98953907     8.1906253     -6.6214355      1.4839375     -5.137498       3768.2956      1.0614879      0.51079024   
     98000   0.99787665     7.8102209     -6.6809604      1.4964408     -5.1845197      3771.0146      1.0607225      0.51407136   
     99000   0.98714282     7.9478889     -6.6803007      1.480344      -5.1999566      3763.9952      1.0627006      0.51358254   
    100000   1.028523       8.1538593     -6.6446646      1.5423988     -5.1022658      3765.7264      1.0622121      0.51308943   
    101000   0.9948497      7.8227838     -6.6731464      1.4919015     -5.1812449      3772.8709      1.0602006      0.51334096   
    102000   0.98886564     8.2226061     -6.6486443      1.4829276     -5.1657166      3758.3632      1.0642931      0.51300693   
    103000   0.99647347     7.9322609     -6.6406128      1.4943365     -5.1462763      3776.2134      1.0592622      0.51136851   
    104000   0.99236725     8.0046513     -6.6564586      1.4881787     -5.1682799      3767.0905      1.0618274      0.51344974   
    105000   1.012909       7.9542414     -6.6778153      1.5189836     -5.1588317      3765.62        1.0622421      0.51490572   
    106000   1.0055894      7.8601299     -6.6540019      1.508007      -5.1459949      3776.6045      1.0591525      0.51298672   
    107000   0.99891311     7.9187613     -6.6738219      1.4979951     -5.1758268      3767.5806      1.0616893      0.51326124   
    108000   0.99575055     7.8228082     -6.7047523      1.4932524     -5.2114999      3763.9363      1.0627172      0.51597821   
    109000   1.012163       8.0825863     -6.656109       1.5178649     -5.1382441      3765.2409      1.062349       0.51293822   
    110000   1.0019367      8.0893728     -6.6385819      1.5025294     -5.1360525      3769.1605      1.0612443      0.51166918   
    111000   0.98315989     7.7592235     -6.6761666      1.4743711     -5.2017955      3775.3082      1.0595162      0.51497773   
    112000   1.0006693      8.1360163     -6.678359       1.5006287     -5.1777302      3755.1593      1.0652011      0.51485955   
    113000   1.0108408      7.9157633     -6.669643       1.5158821     -5.153761       3769.7927      1.0610663      0.51226041   
    114000   0.9959929      8.0577462     -6.6380463      1.4936159     -5.1444304      3771.2421      1.0606585      0.51067028   
    115000   1.0005267      8.091562      -6.6740418      1.5004148     -5.173627       3759.3202      1.0640222      0.5144355    
    116000   0.98989252     8.0496675     -6.6499419      1.4844676     -5.1654744      3767.2502      1.0617824      0.51200616   
    117000   0.99961725     8.0697534     -6.6425714      1.499051      -5.1435203      3768.8071      1.0613438      0.51231735   
    118000   0.98548419     8.0967781     -6.6602094      1.4778567     -5.1823527      3761.6486      1.0633635      0.51380302   
    119000   0.98106642     8.0923372     -6.6588919      1.4712317     -5.1876602      3762.8986      1.0630103      0.51480055   
    120000   1.0046849      7.8899979     -6.6643907      1.5066506     -5.1577402      3771.7646      1.0605116      0.51464493   
    121000   0.99614232     8.0890673     -6.6700966      1.4938399     -5.1762567      3759.9274      1.0638503      0.51501619   
    122000   0.98221531     7.9017742     -6.6743287      1.4729546     -5.2013741      3767.6139      1.0616799      0.51300065   
    123000   1.0162472      8.1005053     -6.6415295      1.5239898     -5.1175398      3767.9222      1.0615931      0.51225928   
    124000   0.99268659     8.120441      -6.6364538      1.4886576     -5.1477961      3767.566       1.0616934      0.51369576   
    125000   0.98464375     7.9974899     -6.6720841      1.4765964     -5.1954877      3764.0558      1.0626835      0.51487623   
    126000   1.0102737      8.12505       -6.6612105      1.5150316     -5.1461789      3761.5397      1.0633943      0.51359295   
    127000   1.0025932      7.7015604     -6.6689986      1.5035138     -5.1654848      3780.3674      1.0580982      0.51293049   
    128000   0.99772034     7.9886698     -6.6702945      1.4962064     -5.1740881      3765.3887      1.0623073      0.51327678   
    129000   1.0105762      8.0900274     -6.6427379      1.5154854     -5.1272526      3768.4493      1.0614446      0.51325397   
    130000   0.97253399     7.7400795     -6.7005418      1.4584363     -5.2421055      3768.0978      1.0615436      0.51550816   
    131000   1.0261445      8.1516774     -6.6458722      1.5388319     -5.1070403      3765.4027      1.0623034      0.51245972   
    132000   0.97224065     8.0314077     -6.6672585      1.4579964     -5.2092621      3762.1527      1.0632211      0.51308355   
    133000   1.0190689      7.9458307     -6.6710681      1.5282212     -5.1428469      3768.3234      1.06148        0.51344729   
    134000   0.99820991     8.1570998     -6.6613642      1.4969405     -5.1644237      3758.9804      1.0641184      0.51366843   
    135000   0.98383327     8.0017408     -6.6521797      1.475381      -5.1767988      3769.3071      1.061203       0.51341837   
    136000   1.0013908      8.013762      -6.62681        1.5017107     -5.1250993      3776.8201      1.059092       0.51117894   
    137000   1.0006079      8.1437802     -6.6301096      1.5005366     -5.129573       3769.1303      1.0612528      0.51236801   
    138000   0.98116635     7.9929674     -6.6589611      1.4713816     -5.1875795      3767.6963      1.0616567      0.51263097   
    139000   1.0122877      8.000487      -6.6713101      1.5180519     -5.1532582      3765.3452      1.0623196      0.51326239   
    140000   0.9989653      8.2466493     -6.6458659      1.4980733     -5.1477925      3758.1447      1.064355       0.51316672   
    141000   0.98945264     7.6818712     -6.6728026      1.4838079     -5.1889947      3779.2324      1.058416       0.51262858   
    142000   1.0038999      8.1424055     -6.6418601      1.5054733     -5.1363867      3765.122       1.0623826      0.51260635   
    143000   0.99631247     8.0243924     -6.6619858      1.4940951     -5.1678907      3765.7767      1.0621979      0.51285231   
    144000   0.99675766     7.951692      -6.6628722      1.4947627     -5.1681094      3768.6886      1.0613772      0.51279736   
    145000   0.99592245     8.1891375     -6.6384371      1.4935102     -5.1449269      3763.2909      1.0628995      0.51430388   
    146000   0.98654344     8.0764783     -6.6755302      1.4794452     -5.196085       3758.673       1.0642054      0.51436299   
    147000   0.99036348     8.002741      -6.6694174      1.4851738     -5.1842436      3764.109       1.0626685      0.51387004   
    148000   1.0149692      7.8387598     -6.6628565      1.5220732     -5.1407833      3775.9075      1.059348       0.51312705   
    149000   1.0041599      8.1204784     -6.6480641      1.5058634     -5.1422007      3765.755       1.062204       0.51279182   
    150000   0.99724546     8.1745347     -6.6437158      1.4954942     -5.1482216      3762.6532      1.0630796      0.51218346   
    151000   1.0183287      7.6722192     -6.6811679      1.5271112     -5.1540566      3779.9309      1.0582204      0.51324451   
    152000   0.97876286     8.0332552     -6.6415036      1.4677773     -5.1737264      3769.55        1.0611346      0.51213121   
    153000   0.97633579     8.3448332     -6.6491546      1.4641376     -5.185017       3751.6996      1.0661834      0.51344589   
    154000   0.99702427     8.0729689     -6.6641606      1.4951625     -5.1689981      3762.3405      1.063168       0.51368853   
    155000   0.9912786      7.7044146     -6.6928615      1.4865462     -5.2063154      3773.8466      1.0599265      0.51493591   
    156000   1.0028782      8.1204035     -6.6231424      1.5039413     -5.1192011      3771.1097      1.0606957      0.51135022   
    157000   1.0152533      8.0915997     -6.6479708      1.5224992     -5.1254716      3766.6451      1.061953       0.5122434    
    158000   0.98736403     7.8708937     -6.6855835      1.4806758     -5.2049077      3766.1742      1.0620858      0.51508409   
    159000   0.98426364     8.0851933     -6.6660624      1.4760264     -5.190036       3760.4996      1.0636885      0.51295459   
    160000   1.0166548      7.8859483     -6.6645549      1.524601      -5.1399539      3772.9386      1.0601816      0.51200489   
    161000   0.99365805     7.9730892     -6.6485937      1.4901145     -5.1584792      3771.7631      1.060512       0.51397454   
    162000   0.99328107     8.0073352     -6.6745474      1.4895491     -5.1849983      3762.7034      1.0630654      0.51358836   
    163000   0.98588447     8.2151625     -6.6541446      1.478457      -5.1756876      3757.6993      1.0644811      0.5136071    
    164000   1.0074924      8.0116722     -6.6615698      1.5108608     -5.150709       3767.6743      1.0616629      0.51494372   
    165000   0.99171891     8.0380263     -6.6690434      1.4872065     -5.181837       3762.3642      1.0631613      0.51466136   
    166000   0.9901546      7.7860954     -6.6907682      1.4848606     -5.2059076      3768.8864      1.0613214      0.51501774   
    167000   1.0113162      8.2627812     -6.6181324      1.5165951     -5.1015374      3766.5879      1.0619691      0.51088506   
    168000   0.99716196     7.8426698     -6.692329       1.495369      -5.19696        3766.6103      1.0619628      0.5138796    
    169000   0.99174025     7.9835273     -6.6406191      1.4872385     -5.1533806      3773.662       1.0599783      0.51117804   
    170000   1.0004435      8.477943      -6.6466766      1.50029       -5.1463865      3747.2719      1.0674432      0.51442196   
    171000   1.000618       7.8230286     -6.674325       1.5005518     -5.1737732      3772.3951      1.0603343      0.51327033   
    172000   0.99449721     7.8823207     -6.6686238      1.4913729     -5.1772509      3770.9144      1.0607507      0.51342745   
    173000   1.017969       8.2446785     -6.6558866      1.5265718     -5.1293148      3756.8861      1.0647116      0.51379589   
    174000   0.99065075     7.9320832     -6.6967209      1.4856046     -5.2111163      3760.6263      1.0636526      0.51693305   
    175000   1.0008364      7.9969174     -6.6646682      1.5008793     -5.1637889      3766.739       1.0619265      0.51353359   
    176000   1.0020085      8.0680828     -6.6407183      1.5026369     -5.1380814      3769.2198      1.0612276      0.51219295   
    177000   0.98374853     8.0466525     -6.6615788      1.4752539     -5.1863249      3763.4867      1.0628442      0.51373535   
    178000   0.9897444      7.8898034     -6.6863113      1.4842455     -5.2020659      3765.0586      1.0624005      0.51455017   
    179000   1.0090577      8.2169056     -6.6355579      1.5132081     -5.1223498      3763.8194      1.0627503      0.51218303   
    180000   0.98677165     8.0926893     -6.6296627      1.4797874     -5.1498752      3770.9809      1.060732       0.51221512   
    181000   0.98157159     7.9176069     -6.6605404      1.4719893     -5.1885511      3771.0905      1.0607011      0.51264669   
    182000   1.0145334      8.2212539     -6.6936915      1.5214196     -5.1722719      3747.6114      1.0673465      0.51480247   
    183000   1.0089306      7.8785893     -6.6744472      1.5130176     -5.1614296      3770.1523      1.0609651      0.51309795   
    184000   0.99352941     7.8801661     -6.6698536      1.4899215     -5.179932       3770.5493      1.0608534      0.51302589   
    185000   0.98932511     8.1173756     -6.6884052      1.4836167     -5.2047885      3752.8271      1.0658631      0.51481219   
    186000   1.0189522      7.9397116     -6.6687875      1.5280462     -5.1407413      3769.2649      1.0612149      0.5132544    
    187000   1.0056083      7.845672      -6.6905718      1.5080354     -5.1825364      3766.6418      1.0619539      0.51525641   
    188000   0.98358719     7.9169464     -6.6707229      1.4750119     -5.195711       3768.3013      1.0614863      0.51482463   
    189000   0.98514518     8.3180404     -6.6487497      1.4773483     -5.1714013      3753.1708      1.0657655      0.5144944    
    190000   0.99067965     8.1244858     -6.6422827      1.485648      -5.1566348      3765.9163      1.0621585      0.51342495   
    191000   1.0037747      7.7786077     -6.6617424      1.5052857     -5.1564568      3778.6287      1.0585851      0.51301648   
    192000   0.99360182     8.1043903     -6.6530768      1.4900301     -5.1630467      3763.55        1.0628263      0.5137714    
    193000   0.99325902     7.9866928     -6.6616686      1.4895161     -5.1721525      3767.9033      1.0615984      0.51419802   
    194000   1.0079074      7.8645262     -6.6475381      1.5114832     -5.136055       3778.8057      1.0585355      0.51169627   
    195000   1.0158707      8.0536821     -6.657154       1.5234251     -5.1337289      3766.8654      1.0618909      0.51387791   
    196000   1.0014337      7.9373028     -6.6831713      1.501775      -5.1813963      3764.8365      1.0624631      0.51503183   
    197000   0.9897664      7.9944679     -6.6596775      1.4842784     -5.1753991      3767.6956      1.0616569      0.51319069   
    198000   1.0033936      8.0101917     -6.6490455      1.5047141     -5.1443314      3769.9765      1.0610146      0.51235015   
    199000   1.0082539      8.1118306     -6.6382082      1.5120028     -5.1262054      3769.2654      1.0612147      0.51104581   
    200000   0.99562278     7.8382531     -6.6740026      1.4930608     -5.1809418      3772.149       1.0604035      0.51319699   
Loop time of 368.246 on 1 procs for 200000 steps with 4000 atoms

Performance: 234625.611 tau/day, 543.115 timesteps/s, 2.172 Matom-step/s
99.9% CPU use with 1 MPI tasks x 1 OpenMP threads

MPI task timing breakdown:
Section |  min time  |  avg time  |  max time  |%varavg| %total
---------------------------------------------------------------
Pair    | 226.62     | 226.62     | 226.62     |   0.0 | 61.54
Neigh   | 90.132     | 90.132     | 90.132     |   0.0 | 24.48
Comm    | 3.7244     | 3.7244     | 3.7244     |   0.0 |  1.01
Output  | 3.965      | 3.965      | 3.965      |   0.0 |  1.08
Modify  | 42.294     | 42.294     | 42.294     |   0.0 | 11.49
Other   |            | 1.514      |            |       |  0.41

Nlocal:           4000 ave        4000 max        4000 min
Histogram: 1 0 0 0 0 0 0 0 0 0
Nghost:           5841 ave        5841 max        5841 min
Histogram: 1 0 0 0 0 0 0 0 0 0
Neighs:         180761 ave      180761 max      180761 min
Histogram: 1 0 0 0 0 0 0 0 0 0
FullNghs:       361512 ave      361512 max      361512 min
Histogram: 1 0 0 0 0 0 0 0 0 0

Total # of neighbors = 361512
Ave neighs/atom = 90.378
Neighbor list builds = 27290
Dangerous builds = 0


# Remove equilibration thermostat/barostat

unfix           equil


# ============================================================
# 14. SAVE EQUILIBRATED FCC CRYSTAL
# ============================================================

# Binary LAMMPS restart file

write_restart   fcc_equilibrated.restart
System init for write_restart ...
Generated 0 of 0 mixed pair_coeff terms from geometric mixing rule


# Human-readable LAMMPS data file

write_data      fcc_equilibrated.data
System init for write_data ...
Generated 0 of 0 mixed pair_coeff terms from geometric mixing rule


print "======================================================"
======================================================
print "FCC EQUILIBRATION FINISHED"
FCC EQUILIBRATION FINISHED
print "Beginning pressure decrease"
Beginning pressure decrease
print "P* = 8.0 -> 1.0"
P* = 8.0 -> 1.0
print "T* remains 1.0"
T* remains 1.0
print "======================================================"
======================================================


# ============================================================
# 15. PRESSURE-DRIVEN MELTING
# ============================================================

# Slowly decrease pressure while holding T* = 1.0.
#
# Starting pressure:
#
#       P* = 8.0
#
# Final pressure:
#
#       P* = 1.0
#
# LAMMPS continuously ramps the target pressure between
# these values during the following run.
#
# The simulation box is allowed to expand.
# Therefore the density will naturally decrease.

fix             melt all npt                                    temp 1.0 1.0 1.0                                iso  8.0 1.0 10.0


# Main decompression run:
#
# 1000000 steps * 0.005
#
# = 5000 LJ time units

run             1000000
Generated 0 of 0 mixed pair_coeff terms from geometric mixing rule
Per MPI rank memory allocation (min/avg/max) = 9.744 | 9.744 | 9.744 Mbytes
   Step          Temp          Press          PotEng         KinEng         TotEng         Volume        Density          c_Q6     
    200000   0.99562278     7.8382531     -6.6740026      1.4930608     -5.1809418      3772.149       1.0604035      0.22371923   
    201000   1.0029741      7.9793441     -6.6447403      1.5040851     -5.1406552      3773.3998      1.060052       0.51280369   
    202000   1.0124852      8.0886016     -6.653357       1.5183481     -5.1350089      3766.2953      1.0620516      0.51359652   
    203000   0.98989478     7.8813541     -6.6967583      1.484471      -5.2122874      3762.5427      1.0631109      0.51612738   
    204000   1.018634       7.9494584     -6.6784119      1.527569      -5.1508428      3766.4922      1.0619961      0.51419075   
    205000   0.99889771     7.6811321     -6.6549613      1.497972      -5.1569893      3785.4825      1.0566685      0.51140256   
    206000   1.0157947      7.9742142     -6.6728187      1.5233111     -5.1495076      3766.1178      1.0621017      0.51334939   
    207000   0.99753613     8.169781      -6.66795        1.4959301     -5.1720199      3756.4794      1.0648268      0.51439063   
    208000   0.98915304     7.7178524     -6.6797513      1.4833586     -5.1963927      3775.7828      1.059383       0.51405208   
    209000   0.98446494     8.1483055     -6.6416668      1.4763282     -5.1653385      3763.691       1.0627865      0.51326951   
    210000   1.0017979      7.9378193     -6.6514865      1.5023211     -5.1491654      3773.7349      1.0599579      0.51255553   
    211000   0.99437206     7.9534408     -6.6751033      1.4911852     -5.1839181      3766.0147      1.0621308      0.51449828   
    212000   0.98282129     7.8168244     -6.6662923      1.4738634     -5.1924289      3774.5915      1.0597173      0.51261617   
    213000   1.0094631      7.8437524     -6.6525587      1.5138161     -5.1387426      3778.4546      1.0586339      0.51143258   
    214000   1.0193009      7.8958123     -6.6702629      1.5285691     -5.1416937      3771.2786      1.0606482      0.51524804   
    215000   0.9982562      7.9911748     -6.6755193      1.49701       -5.1785094      3763.5077      1.0628383      0.51465865   
    216000   1.0023639      7.8262992     -6.6663549      1.50317       -5.1631849      3774.3223      1.0597929      0.51208691   
    217000   1.0055626      7.8817662     -6.6438891      1.5079668     -5.1359223      3778.9677      1.0584901      0.51204451   
    218000   1.0074575      7.6013924     -6.7029922      1.5108084     -5.1921837      3776.4917      1.0591841      0.51293695   
    219000   0.99268409     7.6976636     -6.7100114      1.4886539     -5.2213575      3768.8869      1.0613213      0.51495455   
    220000   1.0400989      8.1540987     -6.6580132      1.5597583     -5.098255       3762.3504      1.0631652      0.51312005   
    221000   0.98591761     7.7316545     -6.657502       1.4785067     -5.1789953      3780.8031      1.0579763      0.51082405   
    222000   1.0066939      7.7557314     -6.6640969      1.5096634     -5.1544335      3779.5384      1.0583303      0.51172443   
    223000   0.99307964     8.0689912     -6.6483185      1.4892471     -5.1590715      3767.4369      1.0617298      0.5122705    
    224000   0.99464615     7.8668096     -6.650307       1.4915962     -5.1587108      3776.9811      1.0590469      0.51206342   
    225000   1.018918       7.6499649     -6.6627608      1.5279949     -5.1347659      3787.3145      1.0561573      0.51136913   
    226000   1.0012647      7.6901969     -6.6703456      1.5015216     -5.168824       3780.6815      1.0580103      0.51348253   
    227000   1.0013379      7.9471329     -6.650144       1.5016314     -5.1485126      3773.7557      1.059952       0.51311288   
    228000   0.99113248     7.5586002     -6.6687633      1.486327      -5.1824363      3787.5397      1.0560945      0.51329678   
    229000   1.0013162      8.098408      -6.6639174      1.5015989     -5.1623185      3762.1451      1.0632232      0.51379075   
    230000   0.99910758     7.9125802     -6.647222       1.4982867     -5.1489353      3775.8708      1.0593583      0.51196625   
    231000   0.98838606     7.4869106     -6.6501685      1.4822085     -5.16796        3796.6609      1.0535573      0.51091957   
    232000   1.0235398      7.6970668     -6.6910614      1.5349259     -5.1561354      3775.9752      1.059329       0.51413326   
    233000   1.0062741      7.9890351     -6.6328448      1.5090338     -5.123811       3776.8479      1.0590842      0.51259758   
    234000   0.97016402     7.0738567     -6.6641362      1.4548822     -5.209254       3814.2526      1.0486983      0.50927105   
    235000   1.0363075      7.7870951     -6.6723803      1.5540726     -5.1183077      3776.6428      1.0591417      0.51324726   
    236000   0.99248834     7.8348491     -6.6427615      1.4883603     -5.1544012      3781.1019      1.0578927      0.51101545   
    237000   0.98667246     7.4512062     -6.6471752      1.4796387     -5.1675365      3799.6889      1.0527178      0.50886787   
    238000   1.0231822      7.6483146     -6.6916037      1.5343896     -5.157214       3778.3678      1.0586582      0.51401252   
    239000   1.0018869      7.7866846     -6.6649807      1.5024547     -5.1625261      3777.7019      1.0588448      0.51260646   
    240000   0.9944697      7.4886451     -6.667525       1.4913316     -5.1761933      3792.1128      1.054821       0.51272914   
    241000   0.99161141     7.776562      -6.6181921      1.4870453     -5.1311468      3791.0383      1.0551199      0.50886676   
    242000   0.99291512     7.784378      -6.6497521      1.4890003     -5.1607517      3781.3332      1.057828       0.51050463   
    243000   0.99400781     7.5828129     -6.6822698      1.490639      -5.1916309      3783.0247      1.057355       0.51265364   
    244000   0.99941393     7.6670508     -6.6349052      1.4987461     -5.1361591      3791.7046      1.0549345      0.50905533   
    245000   1.0008798      7.7198722     -6.6450501      1.5009444     -5.1441057      3786.3146      1.0564362      0.512117     
    246000   0.99287538     7.5876978     -6.672018       1.4889407     -5.1830773      3785.3564      1.0567037      0.51260862   
    247000   1.0187467      7.6551046     -6.6517126      1.5277381     -5.1239745      3788.6315      1.0557902      0.51205545   
    248000   1.0191368      7.6311557     -6.6564455      1.5283231     -5.1281224      3788.499       1.0558271      0.51158095   
    249000   0.98504474     7.6797132     -6.6648171      1.4771977     -5.1876193      3781.9693      1.05765        0.51184867   
    250000   0.99018832     7.414357      -6.6783535      1.4849112     -5.1934423      3792.8269      1.0546224      0.51076814   
    251000   1.0191566      7.8575982     -6.6282308      1.5283527     -5.0998782      3785.4044      1.0566903      0.51070973   
    252000   0.97238371     7.4867573     -6.6784062      1.4582109     -5.2201952      3787.2549      1.056174       0.51272271   
    253000   0.99990113     7.4995301     -6.6431         1.4994767     -5.1436233      3798.61        1.0530168      0.51053825   
    254000   1.0083569      7.7776763     -6.6545602      1.5121572     -5.142403       3781.2865      1.057841       0.51203662   
    255000   0.98348436     7.6437005     -6.6298163      1.4748577     -5.1549585      3794.4884      1.0541606      0.50892867   
    256000   0.99117877     7.4944031     -6.654429       1.4863965     -5.1680325      3795.6739      1.0538313      0.51243296   
    257000   1.0170889      7.6154538     -6.6785243      1.525252      -5.1532724      3783.5994      1.0571944      0.51355437   
    258000   0.98749742     7.3226937     -6.6620654      1.4808758     -5.1811895      3801.8722      1.0521132      0.51027918   
    259000   0.99346052     7.8862913     -6.6448975      1.4898182     -5.1550793      3777.945       1.0587767      0.51249914   
    260000   0.9856644      7.8856443     -6.6096465      1.478127      -5.1315195      3787.7957      1.0560232      0.51007836   
    261000   0.99865842     7.1753219     -6.6870601      1.4976131     -5.1894469      3803.0898      1.0517764      0.51228952   
    262000   1.0113196      7.6931069     -6.6400554      1.5166001     -5.1234553      3790.032       1.0554001      0.51043691   
    263000   1.0120516      7.5345903     -6.6737245      1.5176978     -5.1560267      3789.5537      1.0555333      0.51209012   
    264000   0.99586673     7.5352489     -6.6598915      1.4934266     -5.1664649      3791.4852      1.0549956      0.51211585   
    265000   1.018632       7.4972573     -6.6510996      1.527566      -5.1235336      3797.4746      1.0533316      0.50980095   
    266000   0.99126144     7.4998253     -6.637027       1.4865204     -5.1505065      3799.99        1.0526344      0.50860547   
    267000   0.99316823     7.6904516     -6.6569554      1.4893799     -5.1675755      3784.39        1.0569735      0.51099632   
    268000   0.967018       7.6353212     -6.6145061      1.4501644     -5.1643418      3797.532       1.0533157      0.50846622   
    269000   0.98844475     7.7702705     -6.6472896      1.4822965     -5.1649931      3782.6856      1.0574498      0.51035914   
    270000   0.98266994     7.4989445     -6.6461897      1.4736364     -5.1725533      3797.7216      1.0532631      0.51036479   
    271000   1.0198935      7.4841969     -6.6475053      1.5294579     -5.1180475      3798.8554      1.0529487      0.51016812   
    272000   1.001477       7.4415429     -6.6707873      1.5018399     -5.1689474      3793.3122      1.0544874      0.5113458    
    273000   1.0015081      7.505377      -6.6650744      1.5018866     -5.1631878      3792.2784      1.0547749      0.51221873   
    274000   0.99896667     7.4531206     -6.6303353      1.4980754     -5.1322599      3804.6764      1.0513378      0.50965551   
    275000   0.99802287     7.3874988     -6.6526673      1.49666       -5.1560072      3801.3519      1.0522572      0.51009174   
    276000   1.0130943      7.687188      -6.6349512      1.5192616     -5.1156896      3791.6758      1.0549425      0.51043108   
    277000   0.99370916     7.4705191     -6.6903106      1.4901911     -5.2001195      3786.4892      1.0563875      0.51307991   
    278000   0.98900839     7.1391561     -6.6799966      1.4831417     -5.1968549      3807.2991      1.0506136      0.5115699    
    279000   1.0067424      7.6614847     -6.6312324      1.509736      -5.1214964      3794.0008      1.054296       0.50959523   
    280000   1.0182167      7.4226152     -6.6711199      1.5269432     -5.1441767      3795.8558      1.0537808      0.51029502   
    281000   0.9928303      7.2307951     -6.6420586      1.4888731     -5.1531855      3813.4221      1.0489266      0.50927812   
    282000   1.0007876      7.4357647     -6.6656431      1.5008062     -5.1648369      3796.111       1.05371        0.5111749    
    283000   1.0094268      7.4645365     -6.6693974      1.5137617     -5.1556357      3793.7745      1.0543589      0.51056487   
    284000   0.99942739     7.4080393     -6.6366591      1.4987663     -5.1378928      3805.1041      1.0512196      0.50909777   
    285000   0.97029938     7.6990715     -6.6392851      1.4550852     -5.1841999      3788.0311      1.0559575      0.51085649   
    286000   0.98770572     7.3363058     -6.6579338      1.4811882     -5.1767456      3803.5975      1.051636       0.51083864   
    287000   0.99985779     7.2720692     -6.637639       1.4994117     -5.1382272      3812.3126      1.0492319      0.51000954   
    288000   0.99334642     7.6400608     -6.6281781      1.4896471     -5.1385309      3795.4181      1.0539023      0.50849995   
    289000   1.0161478      7.0751818     -6.6954274      1.5238406     -5.1715868      3807.1847      1.0506451      0.51139278   
    290000   1.0359403      6.8379652     -6.6648839      1.5535219     -5.111362       3830.407       1.0442754      0.51057445   
    291000   1.0077021      7.5617296     -6.6405146      1.5111753     -5.1293393      3796.8453      1.0535062      0.50885583   
    292000   0.98666279     7.5865409     -6.6386993      1.4796242     -5.1590751      3794.9658      1.0540279      0.51062243   
    293000   0.98518704     7.187654      -6.6569519      1.4774111     -5.1795408      3809.375       1.050041       0.51026276   
    294000   0.98798678     7.4471829     -6.6475481      1.4816097     -5.1659384      3799.6798      1.0527203      0.51031055   
    295000   1.0007021      7.4197391     -6.6394121      1.5006779     -5.1387342      3804.413       1.0514106      0.50918422   
    296000   1.0012476      7.4781233     -6.6536838      1.501496      -5.1521878      3796.832       1.0535099      0.51129327   
    297000   1.0106471      7.1199953     -6.6944115      1.5155916     -5.1788199      3804.7706      1.0513118      0.51297218   
    298000   1.0107083      7.231955      -6.6489788      1.5156835     -5.1332953      3812.1986      1.0492633      0.51044446   
    299000   1.0203501      7.3097651     -6.6509871      1.5301425     -5.1208447      3807.8267      1.050468       0.50938088   
    300000   1.0010862      7.1312905     -6.692471       1.5012539     -5.1912171      3803.8537      1.0515652      0.51202225   
    301000   0.99169036     7.3811058     -6.6355398      1.4871637     -5.1483762      3806.4218      1.0508557      0.50806559   
    302000   0.99300925     7.2045788     -6.6325692      1.4891415     -5.1434277      3817.5399      1.0477952      0.50858485   
    303000   1.0060432      7.4169412     -6.6762334      1.5086875     -5.1675459      3794.2763      1.0542195      0.51173725   
    304000   1.0009973      7.3456384     -6.6425782      1.5011206     -5.1414576      3807.3105      1.0506104      0.50974184   
    305000   1.0108713      6.9686946     -6.6680741      1.5159278     -5.1521462      3820.8524      1.0468868      0.51094312   
    306000   0.9886771      7.4085055     -6.6352467      1.4826449     -5.1526018      3804.5897      1.0513617      0.51003039   
    307000   0.99079801     7.4151468     -6.622874       1.4858255     -5.1370486      3808.6401      1.0502436      0.50875846   
    308000   0.99661352     7.1212954     -6.5924611      1.4945465     -5.0979145      3833.4155      1.0434559      0.50451692   
    309000   1.0135501      6.9642942     -6.6852004      1.519945      -5.1652554      3816.0796      1.0481962      0.5114745    
    310000   0.99642194     7.7035989     -6.6325083      1.4942592     -5.1382491      3789.9944      1.0554105      0.51037327   
    311000   0.98700333     7.3329752     -6.6309265      1.4801349     -5.1507916      3810.5494      1.0497174      0.5088817    
    312000   1.0025944      7.0705705     -6.6698036      1.5035156     -5.166288       3815.2569      1.0484222      0.50991426   
    313000   1.0246978      7.3251902     -6.6497084      1.5366625     -5.1130459      3808.1971      1.0503658      0.50947767   
    314000   0.99675288     7.0160561     -6.7192218      1.4947555     -5.2244663      3802.7123      1.0518808      0.51330949   
    315000   1.0056025      7.1981233     -6.6321583      1.5080266     -5.1241317      3818.3026      1.0475859      0.50854884   
    316000   1.0154102      7.1447517     -6.649567       1.5227346     -5.1268324      3816.6032      1.0480524      0.50940713   
    317000   0.98893491     7.1844812     -6.6536428      1.4830315     -5.1706112      3811.652       1.0494137      0.50893304   
    318000   0.99021925     7.142395      -6.6639875      1.4849575     -5.17903        3811.6888      1.0494036      0.51071259   
    319000   1.0110877      7.2140767     -6.6329907      1.5162524     -5.1167383      3817.5796      1.0477843      0.50896195   
    320000   1.0056754      7.1811056     -6.6467931      1.5081359     -5.1386572      3814.7025      1.0485746      0.50956031   
    321000   1.0098918      7.1881124     -6.6731518      1.514459      -5.1586928      3807.3894      1.0505886      0.51017885   
    322000   1.001457       7.1182867     -6.6362125      1.5018099     -5.1344026      3821.6421      1.0466705      0.5077695    
    323000   1.0005729      7.2022921     -6.6080002      1.5004842     -5.1075161      3825.2939      1.0456713      0.50717144   
    324000   0.98035482     7.0196695     -6.6486448      1.4701646     -5.1784802      3821.4564      1.0467214      0.50826958   
    325000   0.98937464     7.2586033     -6.621617       1.4836909     -5.1379261      3817.4592      1.0478174      0.50829716   
    326000   1.008961       7.3929096     -6.6593473      1.5130631     -5.1462842      3799.798       1.0526875      0.5098419    
    327000   0.98051805     6.907709      -6.6492733      1.4704094     -5.1788639      3828.0692      1.0449132      0.50796305   
    328000   1.0352533      6.8867263     -6.6803259      1.5524917     -5.1278342      3823.5052      1.0461605      0.51114237   
    329000   1.0212583      7.2763361     -6.6324926      1.5315045     -5.1009881      3815.0448      1.0484805      0.5096757    
    330000   1.0226107      6.6634466     -6.6924426      1.5335326     -5.1589099      3831.3473      1.0440192      0.51039561   
    331000   1.0037613      7.1196211     -6.6465376      1.5052656     -5.141272       3818.7708      1.0474575      0.50922037   
    332000   0.99158226     7.1248196     -6.6306356      1.4870016     -5.143634       3822.2245      1.046511       0.50820765   
    333000   0.99769888     6.9052412     -6.6673519      1.4961742     -5.1711777      3823.2366      1.046234       0.50945016   
    334000   1.0062548      7.3106149     -6.6163141      1.5090048     -5.1073093      3817.1029      1.0479152      0.50697646   
    335000   1.0120665      7.0498556     -6.6101258      1.5177203     -5.0924055      3833.6601      1.0433893      0.5059785    
    336000   0.97357242     6.9300463     -6.6479718      1.4599935     -5.1879783      3827.1263      1.0451706      0.50871342   
    337000   0.98060017     7.0066506     -6.6582396      1.4705325     -5.1877071      3819.687       1.0472062      0.51017208   
    338000   1.0112902      7.0871415     -6.6335718      1.5165561     -5.1170157      3825.3359      1.0456598      0.50767654   
    339000   0.98847077     7.1211837     -6.6331055      1.4823355     -5.15077        3821.316       1.0467598      0.50797873   
    340000   0.97555571     6.9814453     -6.6464479      1.4629677     -5.1834801      3825.0785      1.0457302      0.50819401   
    341000   0.99905459     7.1713365     -6.6420523      1.4982072     -5.143845       3817.2177      1.0478836      0.50855923   
    342000   0.99963781     7.073303      -6.629974       1.4990819     -5.1308922      3825.9255      1.0454987      0.50759138   
    343000   1.0193444      6.9947321     -6.6664025      1.5286343     -5.1377681      3819.6174      1.0472253      0.50925597   
    344000   0.97867136     7.0189978     -6.6425878      1.46764       -5.1749478      3823.7701      1.046088       0.5076386    
    345000   0.99907116     6.7909152     -6.6901592      1.4982321     -5.1919272      3823.5078      1.0461598      0.50984616   
    346000   1.0265259      7.0266761     -6.6497096      1.539404      -5.1103057      3823.6518      1.0461204      0.50919375   
    347000   0.99912511     7.0814137     -6.6338635      1.498313      -5.1355505      3824.2104      1.0459676      0.50895305   
    348000   0.97488564     6.7842428     -6.665257       1.4619629     -5.2032942      3829.4083      1.0445478      0.50767696   
    349000   1.0084339      7.3041959     -6.5808957      1.5122726     -5.0686231      3827.8878      1.0449627      0.50409364   
    350000   0.97310549     7.0537728     -6.6456144      1.4592933     -5.1863211      3821.1488      1.0468056      0.50900424   
    351000   1.0140412      6.8140706     -6.6507654      1.5206815     -5.1300839      3834.9554      1.0430369      0.50609168   
    352000   1.0002444      7.0963995     -6.638551       1.4999915     -5.1385595      3821.6635      1.0466646      0.50863189   
    353000   0.9918354      6.6868869     -6.6409688      1.4873812     -5.1535877      3843.5124      1.0407147      0.50681752   
    354000   0.99484644     7.1514968     -6.6222954      1.4918966     -5.1303988      3823.45        1.0461756      0.50748067   
    355000   1.0115962      6.853277      -6.6245188      1.5170149     -5.1075039      3839.8791      1.0416995      0.50571543   
    356000   0.99168271     6.6413541     -6.6605831      1.4871522     -5.1734309      3839.6978      1.0417487      0.50800971   
    357000   1.0146393      7.1160751     -6.6428457      1.5215785     -5.1212673      3820.2852      1.0470422      0.50860959   
    358000   1.020242       6.7802577     -6.6708325      1.5299804     -5.1408521      3831.2692      1.0440405      0.50857112   
    359000   1.0221407      6.7228582     -6.6369605      1.5328277     -5.1041327      3844.0692      1.040564       0.50785845   
    360000   0.99769215     6.7630415     -6.6497307      1.4961641     -5.1535666      3836.745       1.0425504      0.50929155   
    361000   1.006519       6.9284439     -6.6674603      1.509401      -5.1580593      3823.0894      1.0462743      0.50962865   
    362000   0.98768593     6.919958      -6.615966       1.4811585     -5.1348075      3837.2681      1.0424083      0.50622594   
    363000   0.98613114     6.7459256     -6.6598615      1.4788269     -5.1810345      3833.8895      1.0433269      0.50868439   
    364000   1.0244786      7.1144743     -6.593888       1.5363338     -5.0575542      3835.5213      1.042883       0.50549314   
    365000   1.011794       6.8406362     -6.6781907      1.5173116     -5.1608792      3824.9165      1.0457745      0.50999698   
    366000   0.98947028     6.6296019     -6.6483083      1.4838344     -5.164474       3844.8095      1.0403636      0.50658031   
    367000   1.0095245      7.0291304     -6.6378327      1.5139082     -5.1239245      3826.3474      1.0453834      0.50779074   
    368000   1.0023094      6.8895191     -6.6324444      1.5030883     -5.1293561      3835.8963      1.0427811      0.50701102   
    369000   0.99374768     6.5698453     -6.6248127      1.4902489     -5.1345638      3854.9035      1.0376395      0.50385545   
    370000   0.97724448     6.8504621     -6.6568124      1.4655003     -5.1913121      3828.5818      1.0447733      0.50967073   
    371000   0.99126624     7.0766064     -6.5851225      1.4865276     -5.0985949      3838.6265      1.0420394      0.50424936   
    372000   1.0001992      6.6339896     -6.6524775      1.4999238     -5.1525537      3843.5055      1.0407166      0.5064748    
    373000   0.98810706     6.7747607     -6.6425091      1.4817901     -5.1607191      3837.2461      1.0424143      0.50664035   
    374000   0.99621247     6.8696346     -6.6141027      1.4939451     -5.1201576      3841.6155      1.0412286      0.50469656   
    375000   0.99446213     6.8599581     -6.6484896      1.4913203     -5.1571693      3831.7445      1.0439109      0.50841637   
    376000   0.99790595     6.7339094     -6.6667385      1.4964847     -5.1702538      3833.3637      1.04347        0.50856008   
    377000   1.0012603      6.7606271     -6.6307768      1.501515      -5.1292618      3842.797       1.0409085      0.50731015   
    378000   1.0065899      6.807659      -6.6566159      1.5095073     -5.1471086      3832.421       1.0437267      0.50934594   
    379000   0.99954378     6.6244466     -6.6496874      1.4989408     -5.1507466      3845.2705      1.0402389      0.50802417   
    380000   0.99790488     6.7969435     -6.6254827      1.4964831     -5.1289996      3843.0482      1.0408404      0.50579639   
    381000   1.0119961      6.7236622     -6.6810834      1.5176146     -5.1634688      3830.4107      1.0442744      0.51111765   
    382000   1.0082966      6.6954877     -6.6333737      1.5120668     -5.1213069      3846.5415      1.0398952      0.50681754   
    383000   0.98634837     6.6913499     -6.6234344      1.4791527     -5.1442818      3847.3896      1.039666       0.50567189   
    384000   1.009325       6.7524326     -6.674091       1.513609      -5.160482       3830.6018      1.0442224      0.50897886   
    385000   1.0155059      6.8684077     -6.6368607      1.5228781     -5.1139826      3836.1316      1.0427171      0.50753899   
    386000   0.98958042     6.6399763     -6.6299383      1.4839995     -5.1459387      3849.7816      1.03902        0.5061733    
    387000   0.98485252     6.7575792     -6.6373467      1.4769095     -5.1604373      3840.3556      1.0415702      0.50776383   
    388000   1.0179225      6.7799821     -6.6103972      1.5265021     -5.0838951      3848.6976      1.0393126      0.50494176   
    389000   1.0106652      6.5189844     -6.6555693      1.5156188     -5.1399505      3849.2759      1.0391565      0.50709136   
    390000   1.004134       6.9481724     -6.642204       1.5058244     -5.1363796      3829.0515      1.0446451      0.50802236   
    391000   0.98758744     6.7509617     -6.6118672      1.4810108     -5.1308564      3848.0465      1.0394885      0.50514971   
    392000   0.99873642     6.4231226     -6.5989523      1.4977301     -5.1012222      3871.0098      1.0333221      0.5029723    
    393000   0.99915993     6.4863967     -6.6388627      1.4983652     -5.1404975      3855.3413      1.0375216      0.50666108   
    394000   1.0004385      6.8635152     -6.623069       1.5002826     -5.1227865      3839.6671      1.041757       0.50700235   
    395000   0.9923288      6.7939112     -6.6169484      1.4881211     -5.1288274      3844.5874      1.0404237      0.50666865   
    396000   1.023155       6.274102      -6.6501168      1.5343488     -5.1157679      3866.333       1.034572       0.5053779    
    397000   0.98575798     6.4624088     -6.6164647      1.4782673     -5.1381974      3862.9084      1.0354892      0.50476928   
    398000   1.0081539      6.8894447     -6.6142082      1.5118528     -5.1023554      3841.173       1.0413486      0.50720784   
    399000   1.0116651      6.5243244     -6.6525683      1.5171182     -5.13545        3849.6816      1.039047       0.50706879   
    400000   1.014113       6.3773539     -6.6648509      1.5207892     -5.1440617      3855.1636      1.0375694      0.50867544   
    401000   0.99833794     6.5644957     -6.6000483      1.4971325     -5.1029158      3862.6555      1.035557       0.50295119   
    402000   1.0039042      6.6380361     -6.6036826      1.5054799     -5.0982027      3858.336       1.0367163      0.50452202   
    403000   0.96243715     6.5985507     -6.6484478      1.4432948     -5.205153       3844.6593      1.0404043      0.50763776   
    404000   1.0075613      6.6017998     -6.6157635      1.5109641     -5.1047994      3856.8476      1.0371164      0.50487527   
    405000   0.99688937     6.6722092     -6.6310543      1.4949602     -5.1360941      3847.6433      1.0395974      0.50745786   
    406000   1.0137982      6.4142498     -6.6432476      1.5203172     -5.1229304      3858.6575      1.03663        0.5065041    
    407000   1.0102445      6.6386509     -6.6770821      1.514988      -5.1620941      3836.1817      1.0427035      0.50998962   
    408000   1.0152522      6.6287617     -6.6339416      1.5224976     -5.111444       3850.4682      1.0388347      0.50816558   
    409000   0.98017908     6.2776047     -6.647075       1.469901      -5.177174       3864.4628      1.0350727      0.50509641   
    410000   1.0122262      6.6764522     -6.5995481      1.5179597     -5.0815884      3857.7217      1.0368814      0.50341073   
    411000   1.0242253      6.4997333     -6.6544123      1.5359538     -5.1184585      3852.2378      1.0383575      0.50744705   
    412000   1.0000855      6.1890521     -6.6350295      1.4997531     -5.1352763      3874.0401      1.0325138      0.50406786   
    413000   0.99726842     6.594535      -6.6259657      1.4955287     -5.130437       3853.332       1.0380626      0.50680197   
    414000   0.9934956      6.5557732     -6.6032671      1.4898708     -5.1133962      3862.1026      1.0357053      0.50236541   
    415000   1.0093278      6.6329908     -6.6018436      1.5136132     -5.0882304      3860.0594      1.0362535      0.50400388   
    416000   0.98120303     6.5467231     -6.6296678      1.4714366     -5.1582312      3854.192       1.037831       0.50602817   
    417000   0.9776131      6.4422304     -6.6180534      1.466053      -5.1520003      3863.1214      1.0354321      0.5045134    
    418000   1.0068971      6.2370509     -6.6356556      1.5099681     -5.1256875      3871.521       1.0331857      0.503527     
    419000   1.002559       6.5875901     -6.6323005      1.5034625     -5.128838       3851.8363      1.0384657      0.5065918    
    420000   1.0114873      6.3699753     -6.6171044      1.5168517     -5.1002527      3869.106       1.0338306      0.50276122   
    421000   1.0084048      6.4770078     -6.6471803      1.512229      -5.1349513      3854.6153      1.0377171      0.50720565   
    422000   0.98504655     6.5040559     -6.6067235      1.4772004     -5.1295231      3863.2742      1.0353912      0.50325614   
    423000   1.0122667      6.2024594     -6.6149872      1.5180204     -5.0969668      3879.6874      1.0310109      0.50341347   
    424000   0.99349862     6.4585822     -6.6168964      1.4898754     -5.1270211      3863.5741      1.0353108      0.50258705   
    425000   1.0034281      6.8968701     -6.615327       1.5047659     -5.1105612      3840.2967      1.0415862      0.50448826   
    426000   0.99627002     6.2940837     -6.6331376      1.4940314     -5.1391062      3868.0032      1.0341253      0.50495342   
    427000   0.98667448     6.0931873     -6.6391031      1.4796417     -5.1594614      3877.2299      1.0316644      0.50595392   
    428000   0.99733785     6.649061      -6.6047815      1.4956328     -5.1091488      3855.9457      1.037359       0.50528222   
    429000   1.0174941      6.4386823     -6.6156667      1.5258596     -5.089807       3866.4339      1.034545       0.50479872   
    430000   0.98793685     6.1651296     -6.6206374      1.4815348     -5.1391026      3879.4947      1.0310621      0.50273344   
    431000   1.0014933      6.4278325     -6.6241554      1.5018644     -5.122291       3863.9594      1.0352076      0.50363681   
    432000   1.0174588      6.4017355     -6.647729       1.5258066     -5.1219223      3859.4293      1.0364227      0.50583014   
    433000   0.99064049     6.2169564     -6.6099325      1.4855892     -5.1243433      3880.1235      1.030895       0.502332     
    434000   0.98973084     6.4088906     -6.6155595      1.4842251     -5.1313344      3866.8781      1.0344262      0.50413151   
    435000   0.99744072     6.3720826     -6.6482071      1.495787      -5.1524201      3859.3657      1.0364397      0.50611859   
    436000   1.0141323      6.2463672     -6.6242491      1.5208182     -5.103431       3874.2441      1.0324595      0.503911     
    437000   1.0170612      6.2289241     -6.6411436      1.5252104     -5.1159332      3870.9496      1.0333382      0.50502479   
    438000   0.9934441      6.1628662     -6.6369143      1.4897936     -5.1471207      3874.878       1.0322906      0.50486869   
    439000   1.0022632      6.35235       -6.6229314      1.503019      -5.1199124      3868.391       1.0340216      0.50526161   
    440000   1.006334       6.6499307     -6.6419426      1.5091237     -5.1328189      3845.6423      1.0401383      0.5060769    
    441000   0.99371667     6.2123529     -6.6186395      1.4902024     -5.1284371      3877.3098      1.0316431      0.50378654   
    442000   1.0087764      6.1993418     -6.6338666      1.5127862     -5.1210804      3874.3335      1.0324357      0.50526667   
    443000   1.0095136      6.4276508     -6.6257364      1.5138918     -5.1118446      3863.9788      1.0352024      0.50461816   
    444000   1.0158621      6.083582      -6.6224695      1.5234122     -5.0990574      3885.0812      1.0295795      0.50352807   
    445000   0.98106205     6.1780367     -6.6281712      1.4712252     -5.156946       3874.8781      1.0322905      0.50532469   
    446000   1.0198613      6.4234974     -6.5944268      1.5294095     -5.0650173      3873.9967      1.0325254      0.5012721    
    447000   0.99488157     6.1094577     -6.6502811      1.4919493     -5.1583318      3873.5132      1.0326543      0.50508702   
    448000   0.99015506     6.1164656     -6.6005105      1.4848613     -5.1156492      3888.6232      1.0286417      0.50309426   
    449000   1.0174957      6.3514896     -6.6204922      1.5258619     -5.0946302      3869.9959      1.0335928      0.50439715   
    450000   1.001829       6.5575747     -6.5979379      1.5023678     -5.0955701      3864.4374      1.0350795      0.50264357   
    451000   1.0114728      6.1394672     -6.6246672      1.5168299     -5.1078374      3880.9255      1.030682       0.50331719   
    452000   0.98534969     6.227479      -6.6322691      1.477655      -5.1546141      3872.1829      1.0330091      0.50453225   
    453000   1.0261647      6.459089      -6.5819788      1.5388623     -5.0431165      3876.9845      1.0317297      0.50088477   
    454000   0.98806851     6.1371183     -6.6307492      1.4817322     -5.1490169      3877.8849      1.0314901      0.50366001   
    455000   0.98443101     5.9987004     -6.6210322      1.4762774     -5.1447548      3887.6538      1.0288982      0.50294648   
    456000   1.005981       6.5079231     -6.6064917      1.5085942     -5.0978975      3864.4784      1.0350685      0.50368357   
    457000   0.97629303     6.3169666     -6.5843431      1.4640734     -5.1202697      3880.0164      1.0309235      0.50131782   
    458000   0.99980247     6.0399341     -6.6202715      1.4993288     -5.1209427      3887.0948      1.0290462      0.50305718   
    459000   1.0141548      6.5230362     -6.597325       1.5208519     -5.0764731      3867.213       1.0343366      0.50351284   
    460000   0.98044604     6.0338073     -6.6079148      1.4703014     -5.1376134      3890.5832      1.0281235      0.50205622   
    461000   0.99120525     5.8871417     -6.6415682      1.4864362     -5.155132       3887.6039      1.0289114      0.50366526   
    462000   1.0306045      6.311146      -6.6182005      1.5455203     -5.0726802      3873.4912      1.0326601      0.5039117    
    463000   1.0107221      6.0259331     -6.6470249      1.5157041     -5.1313208      3880.2746      1.0308549      0.50468301   
    464000   0.98918325     5.8558623     -6.6239727      1.4834039     -5.1405688      3896.563       1.0265457      0.50326547   
    465000   1.012451       6.2790026     -6.6189743      1.5182969     -5.1006774      3873.8841      1.0325554      0.50449287   
    466000   1.0059256      6.4736182     -6.6604478      1.5085112     -5.1519366      3850.7557      1.0387572      0.50827768   
    467000   1.0094164      6.1541988     -6.6098875      1.513746      -5.0961414      3884.2861      1.0297903      0.50177873   
    468000   0.98847444     5.9646054     -6.613405       1.482341      -5.131064       3892.6695      1.0275725      0.5014112    
    469000   1.0139447      6.1126935     -6.6354019      1.5205369     -5.114865       3879.1445      1.0311552      0.5045438    
    470000   1.0226901      5.9688279     -6.6193378      1.5336517     -5.0856862      3892.9762      1.0274915      0.50412077   
    471000   1.0001954      5.9638749     -6.6176974      1.4999181     -5.1177793      3892.7048      1.0275631      0.5023031    
    472000   1.0080851      6.1710935     -6.6340546      1.5117496     -5.122305       3875.5629      1.0321081      0.50530084   
    473000   0.995604       5.9642107     -6.6097329      1.4930326     -5.1167002      3894.5715      1.0270706      0.50268204   
    474000   1.0140094      5.9834878     -6.633032       1.5206339     -5.1123981      3887.4235      1.0289592      0.50450141   
    475000   1.0015564      6.2179618     -6.599028       1.501959      -5.097069       3883.4691      1.0300069      0.50231583   
    476000   0.99702674     6.0741615     -6.6208398      1.4951662     -5.1256736      3885.4535      1.0294808      0.50188558   
    477000   1.0133853      5.7288618     -6.6303639      1.519698      -5.1106659      3902.9187      1.024874       0.50211452   
    478000   1.0102838      5.9813974     -6.6087874      1.5150468     -5.0937406      3894.6316      1.0270548      0.50254636   
    479000   1.0251504      6.2054135     -6.5986153      1.5373412     -5.061274       3885.2555      1.0295333      0.50020817   
    480000   0.97879882     6.1356313     -6.6147646      1.4678312     -5.1469335      3883.3818      1.0300301      0.50218544   
    481000   1.0058635      5.7904817     -6.6518176      1.5084181     -5.1433996      3892.4173      1.027639       0.50373497   
    482000   0.996064       6.0638642     -6.5940517      1.4937225     -5.1003292      3894.7412      1.0270259      0.50204205   
    483000   1.0029167      6.2905703     -6.5873732      1.5039989     -5.0833743      3882.8381      1.0301743      0.50217071   
    484000   0.97958883     5.8426499     -6.6079779      1.4690159     -5.138962       3901.7581      1.0251789      0.50059202   
    485000   0.99589469     5.7496924     -6.6491893      1.4934686     -5.1557207      3895.5541      1.0268116      0.50389876   
    486000   1.0243902      6.351373      -6.5830571      1.5362011     -5.046856       3882.3278      1.0303097      0.50133685   
    487000   0.99432775     6.0677737     -6.5837461      1.4911187     -5.0926273      3897.5218      1.0262932      0.50176833   
    488000   1.0023031      5.7020506     -6.6008531      1.5030788     -5.0977744      3913.9321      1.0219901      0.50183335   
    489000   0.99820503     6.0655631     -6.602975       1.4969332     -5.1060418      3891.3955      1.0279089      0.5010877    
    490000   0.98366801     6.0634483     -6.5838907      1.4751331     -5.1087576      3896.6585      1.0265205      0.50124036   
    491000   1.0140575      5.837978      -6.5946318      1.5207059     -5.0739258      3908.71        1.0233555      0.50093113   
    492000   0.99540904     5.8639743     -6.6136238      1.4927403     -5.1208836      3900.1807      1.0255935      0.50159315   
    493000   1.0033849      6.1916652     -6.6159767      1.504701      -5.1112757      3879.8732      1.0309615      0.50309632   
    494000   1.014416       6.0382276     -6.5956144      1.5212435     -5.0743709      3896.4001      1.0265886      0.50202485   
    495000   1.0085114      5.7900487     -6.5916514      1.5123889     -5.0792625      3911.3642      1.0226611      0.49956044   
    496000   0.99171914     5.7063731     -6.6257788      1.4872068     -5.138572       3904.2723      1.0245187      0.50392227   
    497000   1.0020625      5.9623618     -6.6002999      1.502718      -5.0975819      3897.7679      1.0262284      0.50087626   
    498000   1.0002714      6.1903021     -6.6237331      1.500032      -5.1237011      3877.2887      1.0316487      0.50433324   
    499000   0.99967524     5.9562903     -6.5889035      1.499138      -5.0897655      3901.9512      1.0251281      0.50019241   
    500000   0.99810018     5.6166018     -6.5848756      1.496776      -5.0880997      3924.8628      1.0191439      0.50018152   
    501000   0.99914853     5.7662913     -6.6133179      1.4983481     -5.1149698      3905.5848      1.0241744      0.50184759   
    502000   0.97638012     5.9741283     -6.6249646      1.464204      -5.1607606      3888.7766      1.0286011      0.50364192   
    503000   1.0154566      5.9520024     -6.5964186      1.5228041     -5.0736145      3901.4884      1.0252498      0.50082327   
    504000   1.0064911      5.9315738     -6.5900394      1.5093593     -5.0806802      3904.5752      1.0244392      0.50252435   
    505000   1.0060741      5.7071697     -6.6305868      1.5087339     -5.121853       3905.0837      1.0243058      0.50302232   
    506000   1.0291944      5.7384487     -6.588844       1.5434056     -5.0454384      3917.0966      1.0211645      0.4990153    
    507000   0.99116875     5.867751      -6.5955523      1.4863814     -5.1091709      3905.1537      1.0242875      0.50072182   
    508000   0.98263786     6.0767541     -6.6002628      1.4735883     -5.1266745      3890.1832      1.0282292      0.50101604   
    509000   1.0022676      5.8676179     -6.5887298      1.5030256     -5.0857042      3907.2894      1.0237276      0.50008671   
    510000   0.98368242     5.962317      -6.5963783      1.4751547     -5.1212236      3898.1484      1.0261282      0.50142682   
    511000   0.98102954     5.629203      -6.6084586      1.4711764     -5.1372821      3913.8798      1.0220038      0.5014881    
    512000   1.0036433      5.9041467     -6.574527       1.5050886     -5.0694384      3910.4648      1.0228963      0.49826141   
    513000   1.0125858      5.9543887     -6.6076791      1.518499      -5.0891801      3897.5054      1.0262975      0.50149734   
    514000   0.9877609      5.7359818     -6.5752184      1.4812709     -5.0939475      3918.3129      1.0208475      0.49882452   
    515000   0.98832965     5.665405      -6.6128598      1.4821238     -5.1307359      3910.7714      1.0228161      0.50194142   
    516000   1.0152709      6.0819481     -6.5563146      1.5225256     -5.033789       3906.2689      1.023995       0.49951398   
    517000   1.0061424      5.689167      -6.6310207      1.5088362     -5.1221845      3904.2338      1.0245288      0.50347213   
    518000   1.005743       5.6032575     -6.6056667      1.5082373     -5.0974294      3918.3669      1.0208335      0.49984785   
    519000   0.99045257     5.9753473     -6.5829861      1.4853074     -5.0976787      3902.9528      1.0248651      0.49885907   
    520000   1.0135954      5.762213      -6.618796       1.520013      -5.098783       3905.4421      1.0242118      0.50193058   
    521000   1.0029708      5.7126962     -6.5881524      1.5040801     -5.0840723      3916.9807      1.0211947      0.49942839   
    522000   1.0115152      5.8432721     -6.6031682      1.5168935     -5.0862747      3904.5971      1.0244335      0.50099456   
    523000   1.0037144      5.717123      -6.5839632      1.5051952     -5.0787681      3918.1496      1.0208901      0.49918047   
    524000   0.97487337     5.4325881     -6.6106725      1.4619445     -5.1487281      3924.2562      1.0193014      0.50182716   
    525000   1.0165724      5.8777035     -6.5684755      1.5244773     -5.0439982      3914.5773      1.0218217      0.49760129   
    526000   1.0055506      5.9412065     -6.5649331      1.5079489     -5.0569842      3911.5111      1.0226227      0.49817894   
    527000   1.0003058      5.7319335     -6.6034766      1.5000835     -5.1033931      3911.445       1.02264        0.50065369   
    528000   0.99090378     5.4247677     -6.6063146      1.4859841     -5.1203305      3927.7756      1.0183881      0.49973745   
    529000   1.0041177      5.6357069     -6.5643281      1.5058001     -5.058528       3929.335       1.017984       0.49618838   
    530000   0.99584429     5.8256672     -6.5795955      1.493393      -5.0862025      3913.1515      1.022194       0.49767705   
    531000   1.0097464      5.8006174     -6.5991858      1.5142409     -5.0849449      3908.4705      1.0234182      0.50130301   
    532000   0.98026057     5.575729      -6.5710396      1.4700233     -5.1010163      3929.9074      1.0178357      0.49747682   
    533000   0.99660496     5.6380369     -6.5780533      1.4945337     -5.0835195      3925.0313      1.0191001      0.49966913   
    534000   1.0093912      5.7782336     -6.6031607      1.5137083     -5.0894524      3908.994       1.0232812      0.50129344   
    535000   1.0053389      5.5259217     -6.5718829      1.5076313     -5.0642516      3935.0714      1.0165         0.49801632   
    536000   0.98974016     5.6365361     -6.5941688      1.4842391     -5.1099297      3918.6749      1.0207532      0.49950608   
    537000   1.0273359      5.5531805     -6.5853257      1.5406186     -5.0447071      3929.1977      1.0180195      0.49907503   
    538000   0.98279417     5.5920398     -6.5935502      1.4738227     -5.1197275      3921.8491      1.019927       0.49839026   
    539000   1.0055109      5.5486406     -6.6133445      1.5078892     -5.1054553      3919.1675      1.0206249      0.50003344   
    540000   1.0016863      5.825328      -6.5399971      1.5021538     -5.0378433      3925.6697      1.0189344      0.49633177   
    541000   1.0147881      5.5234498     -6.5850704      1.5218017     -5.0632688      3929.8899      1.0178402      0.49934724   
    542000   0.99029018     5.8061628     -6.5871645      1.4850639     -5.1021006      3911.1049      1.0227289      0.49922664   
    543000   1.0010272      5.4166369     -6.5989817      1.5011655     -5.0978162      3931.5414      1.0174127      0.49884054   
    544000   0.97764657     5.5240086     -6.5830834      1.4661032     -5.1169801      3928.7286      1.0181411      0.49918994   
    545000   0.98578008     5.5932404     -6.5945906      1.4783004     -5.1162901      3921.8007      1.0199396      0.50045825   
    546000   1.0059583      5.9941615     -6.5081934      1.5085603     -4.9996331      3926.5348      1.0187099      0.4948839    
    547000   0.99209063     5.6016926     -6.5924504      1.4877639     -5.1046865      3922.4552      1.0197694      0.49939865   
    548000   0.98515038     5.4079767     -6.5662061      1.4773561     -5.0888499      3941.3774      1.0148736      0.49627589   
    549000   1.0166849      5.6701758     -6.5940109      1.5246461     -5.0693648      3918.871       1.0207021      0.49877085   
    550000   0.99651904     5.7442701     -6.5630637      1.4944049     -5.0686588      3922.7277      1.0196986      0.499238     
    551000   1.0077577      5.4869349     -6.5661338      1.5112586     -5.0548752      3938.7555      1.0155492      0.49810927   
    552000   0.99335981     5.5826051     -6.5967919      1.4896672     -5.1071247      3921.831       1.0199318      0.49858787   
    553000   0.98033182     5.6572216     -6.5766939      1.4701301     -5.1065638      3922.2283      1.0198284      0.49871239   
    554000   1.0155487      5.4152842     -6.5928695      1.5229422     -5.0699273      3933.9933      1.0167786      0.50033785   
    555000   1.0199087      5.5214663     -6.5885356      1.5294806     -5.059055       3929.9693      1.0178196      0.49867238   
    556000   0.99370393     5.6057477     -6.5994179      1.4901833     -5.1092347      3919.4982      1.0205388      0.49968103   
    557000   1.0060207      5.4066904     -6.5779796      1.5086537     -5.0693259      3939.8507      1.0152669      0.49868452   
    558000   0.99347528     5.5088034     -6.5419758      1.4898404     -5.0521354      3944.0889      1.0141759      0.49605124   
    559000   1.0001808      5.4332197     -6.6085975      1.4998961     -5.1087014      3927.6662      1.0184165      0.50096772   
    560000   0.99551222     5.5293431     -6.5676509      1.492895      -5.0747559      3933.8786      1.0168082      0.49827839   
    561000   1.0049303      5.2633876     -6.5831607      1.5070186     -5.0761421      3946.4986      1.0135567      0.49568482   
    562000   1.0065749      5.3339216     -6.6116315      1.5094849     -5.1021466      3932.7919      1.0170892      0.50091353   
    563000   1.0178465      5.5966768     -6.5594356      1.5263881     -5.0330475      3934.4784      1.0166532      0.49762333   
    564000   1.0263674      5.3813985     -6.580768       1.5391663     -5.0416017      3941.5526      1.0148285      0.4980938    
    565000   0.97821705     5.5545515     -6.5696781      1.4669587     -5.1027194      3931.2484      1.0174885      0.49800708   
    566000   0.98080164     5.3294861     -6.5664583      1.4708347     -5.0956236      3946.1519      1.0136457      0.49433441   
    567000   0.9945767      5.6043554     -6.544008       1.4914921     -5.0525159      3937.8308      1.0157877      0.49514272   
    568000   1.015423       5.5578036     -6.5867837      1.5227537     -5.06403        3927.7332      1.0183991      0.4971172    
    569000   0.99304975     5.3103203     -6.5670289      1.4892022     -5.0778267      3948.9569      1.0129257      0.49667159   
    570000   0.99690969     5.1663616     -6.5938668      1.4949907     -5.0988761      3948.5702      1.0130249      0.4969341    
    571000   1.0126542      5.6864278     -6.5824299      1.5186016     -5.0638283      3921.7321      1.0199575      0.5007509    
    572000   1.0201564      5.302927      -6.5900905      1.529852      -5.0602385      3941.8679      1.0147473      0.49665879   
    573000   0.98405437     5.2298333     -6.5942981      1.4757125     -5.1185856      3943.8576      1.0142354      0.49662127   
    574000   1.0137202      5.3376373     -6.5445225      1.5202001     -5.0243224      3955.4377      1.0112661      0.4943833    
    575000   0.99255897     5.5322793     -6.5716607      1.4884662     -5.0831945      3933.8079      1.0168265      0.49696111   
    576000   0.98350291     5.2478602     -6.5450236      1.4748856     -5.070138       3958.265       1.0105438      0.49383673   
    577000   0.99419842     5.5185537     -6.5628375      1.4909248     -5.0719127      3936.9061      1.0160263      0.4974873    
    578000   0.99036038     5.4588264     -6.5415963      1.4851692     -5.0564271      3947.6351      1.0132649      0.49597154   
    579000   1.0085335      5.416728      -6.5557054      1.5124221     -5.0432833      3946.7243      1.0134987      0.49679364   
    580000   0.99163581     5.5513121     -6.5835924      1.4870819     -5.0965105      3927.979       1.0183354      0.49841984   
    581000   0.99222691     5.3166726     -6.576505       1.4879683     -5.0885367      3944.2846      1.0141256      0.49618721   
    582000   1.0037052      5.0609681     -6.5641621      1.5051814     -5.0589807      3965.5497      1.0086874      0.49469953   
    583000   0.99884631     5.2615381     -6.564213       1.4978949     -5.0663181      3952.8337      1.0119323      0.49637239   
    584000   1.0086559      5.5102508     -6.581574       1.5126056     -5.0689684      3932.1019      1.0172676      0.49765234   
    585000   0.98319705     5.5829695     -6.5437774      1.4744269     -5.0693506      3938.5012      1.0156148      0.49691274   
    586000   0.98001621     5.1325361     -6.5667044      1.4696568     -5.0970476      3957.8205      1.0106573      0.4945742    
    587000   1.0225326      5.0952614     -6.5798204      1.5334154     -5.046405       3958.3537      1.0105211      0.49692931   
    588000   1.0148136      5.3985287     -6.5614054      1.5218398     -5.0395656      3945.9091      1.0137081      0.4955871    
    589000   1.0010848      5.4583784     -6.5871173      1.5012519     -5.0858654      3932.8736      1.017068       0.49723536   
    590000   0.99055583     5.2523508     -6.5678449      1.4854623     -5.0823827      3951.8416      1.0121863      0.49608555   
    591000   1.0243836      5.1729603     -6.560995       1.5361913     -5.0248037      3961.9182      1.009612       0.49439038   
    592000   0.98668478     5.3010998     -6.5645303      1.4796572     -5.0848732      3949.8471      1.0126974      0.49647302   
    593000   0.99575901     5.299876      -6.5708029      1.4932651     -5.0775378      3948.0532      1.0131576      0.49780202   
    594000   1.012243       5.3286142     -6.5540261      1.5179849     -5.0360412      3953.1953      1.0118397      0.49716385   
    595000   1.001039       5.2170638     -6.5855438      1.5011831     -5.0843606      3948.9395      1.0129302      0.49782883   
    596000   0.99591432     4.9662503     -6.5549604      1.493498      -5.0614624      3973.5745      1.0066503      0.49273978   
    597000   1.0139426      5.4304274     -6.5435984      1.5205337     -5.0230647      3948.8885      1.0129433      0.49439976   
    598000   1.0006214      5.4372387     -6.5450428      1.5005569     -5.0444859      3948.0019      1.0131707      0.49404161   
    599000   1.0010916      5.0536357     -6.5882177      1.501262      -5.0869557      3958.1218      1.0105803      0.49779831   
    600000   0.98591485     5.1273157     -6.5494735      1.4785026     -5.0709709      3965.2813      1.0087557      0.49535692   
    601000   1.0082881      5.557955      -6.5316737      1.5120541     -5.0196195      3945.4024      1.0138383      0.49456068   
    602000   1.0006452      5.3650328     -6.5466868      1.5005926     -5.0460942      3952.5676      1.0120004      0.49547957   
    603000   0.98204393     5.1166285     -6.5579018      1.4726976     -5.0852042      3962.4881      1.0094668      0.49373072   
    604000   1.0123117      5.0382816     -6.5845545      1.5180879     -5.0664665      3961.3574      1.0097549      0.49709634   
    605000   0.99142804     5.1338074     -6.5440854      1.4867703     -5.0573152      3966.7605      1.0083795      0.49328782   
    606000   0.99889638     5.2773501     -6.5707675      1.49797       -5.0727975      3948.5783      1.0130228      0.49690754   
    607000   1.0236446      5.1269589     -6.5545247      1.535083      -5.0194417      3965.5981      1.0086751      0.49425465   
    608000   1.0141704      5.1779917     -6.5408065      1.5208752     -5.0199313      3967.0024      1.008318       0.49346472   
    609000   1.0113179      4.9704678     -6.5915945      1.5165976     -5.0749969      3961.8893      1.0096193      0.49719685   
    610000   0.99210823     4.9085398     -6.5903402      1.4877903     -5.1025499      3965.9672      1.0085812      0.49788611   
    611000   1.0191241      5.3743007     -6.5489749      1.5283039     -5.020671       3952.9862      1.0118932      0.4935739    
    612000   1.0315408      5.1417947     -6.583587       1.5469244     -5.0366625      3956.3649      1.0110291      0.49689518   
    613000   0.97429915     4.8772549     -6.5508544      1.4610834     -5.089771       3979.3526      1.0051886      0.49369591   
    614000   0.98887548     5.0246418     -6.5745743      1.4829424     -5.0916319      3963.4657      1.0092178      0.49581817   
    615000   1.0191102      5.2280847     -6.5372623      1.5282832     -5.0089791      3965.0309      1.0088194      0.49459379   
    616000   0.99250262     5.0135975     -6.5722591      1.4883817     -5.0838774      3964.5177      1.00895        0.49692727   
    617000   0.99770436     4.9241907     -6.5553997      1.4961824     -5.0592173      3976.6769      1.005865       0.49579373   
    618000   1.0010934      5.1195625     -6.54219        1.5012647     -5.0409253      3968.6541      1.0078984      0.49428174   
    619000   1.0117401      5.3451373     -6.5615026      1.5172308     -5.0442718      3949.3721      1.0128192      0.49717505   
    620000   0.99929333     5.179363      -6.533584       1.4985653     -5.0350188      3967.3682      1.008225       0.49275524   
    621000   1.0007406      4.7967052     -6.5371375      1.5007356     -5.0364018      3991.0885      1.0022329      0.49353032   
    622000   0.99367605     4.9777003     -6.5766421      1.4901414     -5.0865006      3965.0891      1.0088046      0.49554117   
    623000   1.0237937      5.0962222     -6.5192138      1.5353067     -4.9839071      3980.598       1.0048741      0.49281147   
    624000   0.98565754     4.9284222     -6.5698919      1.4781167     -5.0917752      3970.8892      1.007331       0.49438148   
    625000   0.99446337     4.9541611     -6.5444637      1.4913221     -5.0531416      3977.9022      1.0055551      0.49544767   
    626000   0.99429091     5.3409218     -6.5097474      1.4910635     -5.0186839      3965.2576      1.0087617      0.49205743   
    627000   1.0082521      4.9449375     -6.5280231      1.5120001     -5.016023       3985.8739      1.003544       0.49146235   
    628000   0.9767765      4.8463239     -6.5552087      1.4647985     -5.0904102      3980.8636      1.0048071      0.49424235   
    629000   0.9794145      5.011416      -6.5538313      1.4687545     -5.0850769      3970.6931      1.0073808      0.49474085   
    630000   1.0295656      5.0545691     -6.5169329      1.5439623     -4.9729705      3984.433       1.0039069      0.49070515   
    631000   1.0013256      4.8965355     -6.584473       1.5016129     -5.08286        3968.8643      1.007845       0.4951564    
    632000   0.98233683     4.9217531     -6.510164       1.4731369     -5.0370271      3990.4181      1.0024012      0.49077298   
    633000   0.99759197     5.1300533     -6.5450632      1.4960139     -5.0490493      3967.0192      1.0083137      0.49650986   
    634000   1.0039527      4.8421984     -6.5580366      1.5055526     -5.0524841      3980.792       1.0048252      0.49624201   
    635000   1.0253671      4.9148694     -6.5511253      1.5376662     -5.0134591      3980.6606      1.0048583      0.49432528   
    636000   1.0038167      5.0691463     -6.5747432      1.5053486     -5.0693945      3961.537       1.0097091      0.49637008   
    637000   0.9975691      4.9287446     -6.5511402      1.4959796     -5.0551606      3977.6276      1.0056246      0.49301861   
    638000   0.99342754     4.6564874     -6.5317859      1.4897688     -5.0420172      4000.5672      0.99985823     0.4910587    
    639000   1.0045684      5.0112767     -6.541132       1.506476      -5.034656       3977.0046      1.0057821      0.49368867   
    640000   1.0010589      5.2560267     -6.5154355      1.5012129     -5.0142226      3970.5216      1.0074243      0.49358693   
    641000   0.99501252     4.8212426     -6.5365121      1.4921457     -5.0443665      3990.0978      1.0024817      0.49180624   
    642000   0.97582067     4.800959      -6.5263413      1.4633651     -5.0629762      3992.8708      1.0017855      0.49005138   
    643000   0.99704476     4.9374434     -6.5435807      1.4951933     -5.0483874      3981.1465      1.0047357      0.49400578   
    644000   1.0255         5.1726535     -6.5375883      1.5378654     -4.9997229      3968.9113      1.0078331      0.49297038   
    645000   1.0129401      4.9732231     -6.5297297      1.5190303     -5.0106994      3982.5033      1.0043934      0.49309314   
    646000   0.98343046     4.6567482     -6.5462376      1.4747769     -5.0714607      3995.8233      1.0010453      0.49288102   
    647000   0.99551659     4.9331974     -6.5371818      1.4929016     -5.0442803      3982.9801      1.0042732      0.49435648   
    648000   1.0139837      5.0691721     -6.5252262      1.5205954     -5.0046309      3978.4641      1.0054131      0.49342136   
    649000   1.0062495      4.789742      -6.5274262      1.508997      -5.0184292      3995.1014      1.0012262      0.49079346   
    650000   1.0000234      4.7948451     -6.5225764      1.4996601     -5.0229163      3996.689       1.0008284      0.48929017   
    651000   0.9943115      4.849045      -6.5461547      1.4910944     -5.0550603      3984.9484      1.0037771      0.49417606   
    652000   0.991605       4.6547654     -6.5224974      1.4870356     -5.0354617      4005.0864      0.99873001     0.48981017   
    653000   0.99239786     4.9312526     -6.5114756      1.4882246     -5.0232509      3990.6282      1.0023485      0.49156951   
    654000   0.98549501     4.9027935     -6.5456973      1.477873      -5.0678244      3981.163       1.0047315      0.49378883   
    655000   1.0042114      4.6908649     -6.5185271      1.5059405     -5.0125867      4005.0123      0.99874849     0.4901007    
    656000   1.0077442      4.9177731     -6.5419128      1.5112383     -5.0306745      3981.5075      1.0046446      0.49268942   
    657000   0.99448815     4.8614316     -6.5147162      1.4913593     -5.0233569      3994.4132      1.0013987      0.49160225   
    658000   1.008438       4.8291515     -6.5115233      1.5122789     -4.9992444      3999.4979      1.0001255      0.48951249   
    659000   1.001161       4.8511438     -6.5591898      1.5013661     -5.0578237      3979.9931      1.0050269      0.49414318   
    660000   0.98077598     4.8914056     -6.5178046      1.4707962     -5.0470085      3991.752       1.0020663      0.49311954   
    661000   0.99474881     4.7853604     -6.5145027      1.4917502     -5.0227525      4000.4075      0.99989814     0.49034043   
    662000   1.0093466      4.6909417     -6.529019       1.5136413     -5.0153777      4001.7759      0.99955623     0.4920017    
    663000   0.99967115     4.8543503     -6.5224631      1.4991319     -5.0233312      3992.5165      1.0018744      0.49159657   
    664000   1.0266532      4.6820609     -6.538107       1.5395948     -4.9985122      4000.6632      0.99983423     0.49218348   
    665000   1.0114788      4.5216065     -6.5163111      1.5168388     -4.9994722      4017.0502      0.99575555     0.48961981   
    666000   0.98623535     4.7085943     -6.5436013      1.4789832     -5.0646181      3994.2255      1.0014457      0.49132577   
    667000   0.99837169     4.6820715     -6.5273264      1.4971832     -5.0301432      4001.1125      0.99972194     0.49223907   
    668000   1.0036556      4.6127609     -6.5095081      1.5051071     -5.004401       4013.2988      0.99668631     0.48675308   
    669000   1.0008759      4.6942509     -6.5540677      1.5009385     -5.0531292      3991.6786      1.0020847      0.49366643   
    670000   1.0147538      4.7131183     -6.5280282      1.5217501     -5.0062781      4001.0179      0.9997456      0.49080909   
    671000   1.011254       4.780997      -6.5082914      1.5165018     -4.9917896      4002.9456      0.99926414     0.490068     
    672000   0.99184932     4.6925087     -6.5640746      1.487402      -5.0766725      3988.8462      1.0027962      0.49432232   
    673000   0.98124958     4.5874738     -6.5097376      1.4715064     -5.0382312      4013.9012      0.99653672     0.48891515   
    674000   1.000334       4.848417      -6.5091279      1.5001259     -5.009002       3997.8539      1.0005368      0.48896187   
    675000   1.0106859      4.8513957     -6.51607        1.5156499     -5.0004201      3996.2333      1.0009426      0.49324642   
    676000   0.9902311      4.4914583     -6.5169134      1.4849753     -5.0319381      4017.5709      0.99562648     0.48922029   
    677000   0.98956928     4.5810469     -6.5305751      1.4839828     -5.0465923      4006.3747      0.99840886     0.49044559   
    678000   1.0108673      4.9716999     -6.5249855      1.5159218     -5.0090637      3983.8651      1.0040501      0.49104854   
    679000   1.0097733      4.7466467     -6.4940992      1.5142814     -4.9798179      4009.3873      0.99765867     0.488219     
    680000   0.98167853     4.4926412     -6.540206       1.4721497     -5.0680563      4008.1061      0.99797758     0.49010653   
    681000   1.0110495      4.5681036     -6.5111311      1.5161951     -4.994936       4015.4356      0.99615593     0.48946198   
    682000   1.0047844      4.9785235     -6.5074598      1.5067998     -5.0006601      3990.0185      1.0025016      0.49016529   
    683000   0.99743706     4.6688424     -6.5091642      1.4957816     -5.0133827      4009.0161      0.99775106     0.49034688   
    684000   0.98591466     4.468315      -6.5046953      1.4785023     -5.026193       4022.8099      0.99432985     0.48846587   
    685000   0.97854391     4.7679958     -6.5113546      1.4674489     -5.0439057      4001.1829      0.99970437     0.49099328   
    686000   0.99730871     4.5572341     -6.5108099      1.4955891     -5.0152208      4015.9998      0.99601599     0.48970783   
    687000   1.0041022      4.4410837     -6.4862291      1.5057767     -4.9804524      4033.1964      0.99176921     0.48781014   
    688000   0.99073581     4.430519      -6.521717       1.4857322     -5.0359848      4020.3032      0.99494983     0.49113595   
    689000   0.99651185     4.7468171     -6.4944117      1.4943941     -5.0000177      4009.5112      0.99762783     0.48718772   
    690000   1.0163292      4.767489      -6.5068144      1.5241127     -4.9827018      4004.964       0.99876053     0.48738943   
    691000   1.0042776      4.5024491     -6.5022764      1.5060398     -4.9962366      4023.5318      0.99415145     0.48825356   
    692000   0.98533542     4.2868642     -6.5207329      1.4776336     -5.0430993      4029.931       0.99257282     0.4889391    
    693000   0.99551574     4.6381548     -6.518314       1.4929003     -5.0254137      4008.4831      0.99788371     0.49153987   
    694000   1.0077078      4.6484608     -6.4823912      1.5111839     -4.9712073      4020.2091      0.99497312     0.48875138   
    695000   1.0246837      4.4578255     -6.5102011      1.5366413     -4.9735598      4023.8076      0.99408332     0.48854767   
    696000   0.97544833     4.771216      -6.498605       1.4628067     -5.0357983      4004.8998      0.99877655     0.48889533   
    697000   1.0090704      4.4259904     -6.516598       1.5132272     -5.0033708      4022.7362      0.99434807     0.4892932    
    698000   0.99435467     4.4899621     -6.4757896      1.4911591     -4.9846304      4032.9523      0.99182924     0.48675585   
    699000   0.98740433     4.5043177     -6.513624       1.4807362     -5.0328878      4017.7315      0.99558668     0.4896471    
    700000   1.0296743      4.3125837     -6.4677608      1.5441253     -4.9236356      4049.4437      0.98778999     0.48506427   
    701000   0.97524446     4.5549321     -6.4929464      1.462501      -5.0304454      4022.2887      0.99445869     0.48789422   
    702000   0.99820188     4.5955108     -6.4911785      1.4969285     -4.99425        4020.1512      0.99498745     0.48845242   
    703000   0.98570034     4.423269      -6.4877296      1.4781809     -5.0095487      4032.8282      0.99185975     0.48658451   
    704000   0.98604776     4.4654226     -6.5197362      1.4787019     -5.0410343      4018.496       0.99539728     0.48965585   
    705000   1.0318045      4.3718579     -6.4933793      1.5473198     -4.9460595      4036.6487      0.990921       0.48761317   
    706000   0.98815163     4.4244348     -6.507931       1.4818569     -5.0260741      4025.1971      0.99374016     0.48748174   
    707000   1.006969       4.5295568     -6.5134269      1.5100759     -5.003351       4018.2836      0.99544989     0.48815752   
    708000   1.0022255      4.5532858     -6.5056853      1.5029623     -5.0027229      4018.8446      0.99531094     0.48854171   
    709000   1.0023617      4.3370732     -6.4699669      1.5031667     -4.9668001      4046.8266      0.98842881     0.48451755   
    710000   0.99280603     4.3063357     -6.5199019      1.4888367     -5.0310652      4030.8543      0.99234548     0.48901826   
    711000   1.0042412      4.3571302     -6.5076912      1.5059852     -5.001706       4031.5282      0.9921796      0.48627898   
    712000   1.0087957      4.4124816     -6.4876423      1.5128152     -4.9748271      4035.0658      0.99130974     0.48804796   
    713000   0.99725074     4.4545572     -6.5334296      1.4955021     -5.0379274      4014.9063      0.99628725     0.48994102   
    714000   1.0126012      4.4626019     -6.4791034      1.5185221     -4.9605813      4032.6509      0.99190337     0.48441149   
    715000   1.0062102      4.3854794     -6.4672635      1.508938      -4.9583255      4044.1263      0.98908879     0.48456812   
    716000   0.98905515     4.5628257     -6.5097102      1.4832118     -5.0264984      4016.9119      0.99578982     0.4898569    
    717000   0.98299249     4.4210835     -6.4637816      1.4741201     -4.9896615      4040.3081      0.9900235      0.48588896   
    718000   1.0017121      4.477538      -6.4882572      1.5021924     -4.9860647      4030.444       0.99244649     0.48758562   
    719000   0.98530379     4.3676916     -6.498738       1.4775862     -5.0211518      4032.8191      0.99186201     0.48979134   
    720000   1.0180808      4.2738712     -6.4640829      1.5267394     -4.9373434      4052.8005      0.98697185     0.4827947    
    721000   1.001427       4.3585986     -6.5165796      1.5017649     -5.0148146      4027.1296      0.99326328     0.48956956   
    722000   0.98475469     4.256807      -6.4613899      1.4767628     -4.9846272      4053.7209      0.98674775     0.48466295   
    723000   0.9960619      4.4620732     -6.471896       1.4937193     -4.9781766      4036.2454      0.99102003     0.48373561   
    724000   1.0145569      4.327379      -6.4882437      1.521455      -4.9667888      4039.5347      0.99021305     0.48568213   
    725000   0.98652316     4.1059535     -6.492003       1.4794148     -5.0125882      4052.4558      0.98705579     0.48763394   
    726000   0.97405169     4.3905554     -6.4769396      1.4607123     -5.0162273      4038.2846      0.99051958     0.48618755   
    727000   1.0137277      4.4464251     -6.4633338      1.5202114     -4.9431224      4042.1577      0.98957049     0.48382704   
    728000   1.004238       4.264264      -6.5192374      1.5059805     -5.0132569      4032.1372      0.99202975     0.48966333   
    729000   1.0008749      4.1170189     -6.484628       1.5009371     -4.983691       4054.7844      0.98648895     0.48484065   
    730000   1.0015968      4.4854859     -6.464394       1.5020196     -4.9623744      4037.9399      0.99060415     0.48380911   
    731000   1.0090927      4.3843629     -6.4804         1.5132606     -4.9671394      4038.7361      0.99040886     0.48419621   
    732000   1.000561       4.4745601     -6.4888384      1.5004663     -4.988372       4030.605       0.99240684     0.48683129   
    733000   0.99677426     4.3278264     -6.4811137      1.4947876     -4.9863261      4041.1816      0.98980952     0.48631838   
    734000   0.98066946     4.0159462     -6.4924615      1.4706364     -5.021825       4057.5839      0.98580833     0.48494983   
    735000   0.99862594     4.1464238     -6.4911157      1.4975644     -4.9935513      4049.8961      0.98767966     0.4863407    
    736000   1.0292509      4.4103572     -6.4662233      1.5434904     -4.922733       4043.4039      0.9892655      0.48272914   
    737000   1.0019831      4.1966501     -6.4971109      1.502599      -4.994512       4045.1133      0.98884745     0.48718875   
    738000   0.98757906     4.0834694     -6.4732065      1.4809983     -4.9922082      4061.3217      0.98490104     0.48378784   
    739000   0.99812322     4.3265024     -6.4712274      1.4968105     -4.9744169      4046.1033      0.9886055      0.48523933   
    740000   1.0031915      4.3927002     -6.4653992      1.5044111     -4.9609881      4043.8788      0.98914933     0.48384045   
    741000   0.98564248     4.2018797     -6.4538606      1.4780941     -4.9757665      4061.4715      0.98486473     0.48306994   
    742000   0.99004628     4.3355528     -6.4947324      1.4846981     -5.0100342      4036.8148      0.99088024     0.4855046    
    743000   1.0195605      4.3138039     -6.4713151      1.5289584     -4.9423567      4047.2699      0.98832055     0.48476368   
    744000   1.0106721      4.0817287     -6.4882233      1.5156291     -4.9725942      4057.2085      0.98589953     0.48335667   
    745000   0.99325742     3.9372661     -6.4892882      1.4895137     -4.9997746      4065.6251      0.98385855     0.48687495   
    746000   0.98381311     4.0060362     -6.4630947      1.4753507     -4.987744       4071.0215      0.98255438     0.48140313   
    747000   1.0150843      4.2209234     -6.4765759      1.5222458     -4.9543301      4051.4209      0.98730793     0.48729902   
    748000   1.0132364      4.2181651     -6.498482       1.5194747     -4.9790073      4044.4183      0.98901738     0.4869294    
    749000   1.0041936      3.9222521     -6.4961433      1.5059139     -4.9902294      4063.9542      0.98426307     0.4856624    
    750000   1.0058593      4.1241119     -6.4547715      1.5084117     -4.9463597      4064.8173      0.98405406     0.48192536   
    751000   0.9772245      4.2196293     -6.485262       1.4654703     -5.0197918      4046.7233      0.98845405     0.4860691    
    752000   1.0043528      4.0414703     -6.4565199      1.5061525     -4.9503674      4071.0253      0.98255345     0.48059247   
    753000   1.0163939      4.2456295     -6.4894213      1.5242096     -4.9652117      4045.4187      0.98877281     0.48642568   
    754000   0.99363359     4.0885709     -6.4412324      1.4900778     -4.9511546      4073.379       0.98198572     0.48171748   
    755000   0.97777312     4.1338032     -6.4636937      1.466293      -4.9974007      4060.8988      0.98500362     0.48231442   
    756000   1.0079537      4.1827786     -6.4084135      1.5115526     -4.8968608      4079.2         0.98058442     0.47887088   
    757000   0.99410758     4.1323985     -6.4780163      1.4907886     -4.9872277      4056.6027      0.98604678     0.48631508   
    758000   0.99468259     3.9415333     -6.4483739      1.4916509     -4.956723       4080.6545      0.98023492     0.4811549    
    759000   0.99603517     4.1824462     -6.4548271      1.4936792     -4.9611478      4061.1523      0.98494212     0.48334726   
    760000   1.0115859      4.1368188     -6.4404172      1.5169995     -4.9234177      4071.3168      0.98248311     0.48107978   
    761000   0.98935267     3.9645612     -6.5080535      1.483658      -5.0243955      4056.9624      0.98595935     0.48707004   
    762000   1.0054665      4.0639296     -6.4364234      1.5078227     -4.9286007      4076.6758      0.9811916      0.4827216    
    763000   1.0091209      4.3868241     -6.4608128      1.5133029     -4.9475099      4046.1001      0.9886063      0.48334292   
    764000   1.0042637      4.08437       -6.4627153      1.506019      -4.9566963      4065.5026      0.98388819     0.4817215    
    765000   0.98600602     4.0423791     -6.4430179      1.4786393     -4.9643786      4075.9449      0.98136754     0.48047842   
    766000   1.0005589      4.0738731     -6.4529893      1.5004631     -4.9525262      4070.0318      0.98279329     0.48463003   
    767000   1.0229321      4.3247667     -6.449821       1.5340145     -4.9158065      4054.9032      0.98646004     0.48194851   
    768000   1.005717       4.0207908     -6.4439016      1.5081984     -4.9357033      4077.1251      0.98108346     0.4811471    
    769000   0.97971735     3.8450658     -6.4557375      1.4692086     -4.9865289      4083.0561      0.97965834     0.48329272   
    770000   0.98808608     3.9761129     -6.4786436      1.4817586     -4.996885       4066.613       0.98361953     0.48391119   
    771000   1.0100764      4.0151601     -6.4387427      1.5147359     -4.9240068      4080.0448      0.98038138     0.48239383   
    772000   0.99346562     4.0301242     -6.4480917      1.4898259     -4.9582658      4073.8351      0.98187578     0.48135091   
    773000   0.99971106     3.8008291     -6.4555834      1.4991917     -4.9563917      4088.3617      0.97838702     0.48008882   
    774000   0.99540912     3.9959693     -6.491256       1.4927404     -4.9985156      4061.0556      0.98496557     0.48467873   
    775000   1.0052027      4.0052231     -6.4259575      1.507427      -4.9185304      4084.983       0.97919623     0.47842362   
    776000   1.0125565      3.8087251     -6.4566262      1.5184551     -4.9381711      4088.5663      0.97833806     0.48264738   
    777000   0.99040307     3.9904009     -6.4392804      1.4852332     -4.9540472      4079.4123      0.98053339     0.48201119   
    778000   0.99344224     3.684996      -6.42003        1.4897908     -4.9302392      4109.9562      0.97324638     0.4781733    
    779000   0.97104261     3.8636404     -6.4357318      1.4561998     -4.979532       4089.7441      0.9780563      0.48117464   
    780000   1.0082963      3.7888138     -6.4818724      1.5120663     -4.9698062      4078.8266      0.98067419     0.48503645   
    781000   0.97347917     4.0950206     -6.4269042      1.4598537     -4.9670505      4075.7039      0.98142556     0.47869745   
    782000   1.0097511      3.9171232     -6.4541002      1.5142481     -4.9398521      4082.4388      0.97980647     0.48362647   
    783000   0.99398172     3.7811528     -6.4466307      1.4905998     -4.9560308      4091.4442      0.97764989     0.48146063   
    784000   0.99037437     3.8955816     -6.3985857      1.4851902     -4.9133955      4102.9516      0.97490792     0.47503511   
    785000   0.99549216     3.9949807     -6.4523614      1.4928649     -4.9594964      4075.2541      0.98153389     0.48261361   
    786000   1.0150367      3.5991299     -6.4619516      1.5221744     -4.9397773      4100.4609      0.97550011     0.4827819    
    787000   0.99272679     3.762114      -6.4243367      1.4887179     -4.9356188      4101.7956      0.97518268     0.47996026   
    788000   1.0142116      3.7357528     -6.4723046      1.5209371     -4.9513675      4086.733       0.97877692     0.48208627   
    789000   1.0027299      3.827189      -6.3944569      1.5037189     -4.890738       4109.747       0.97329592     0.47557824   
    790000   0.99951091     3.6929272     -6.4762174      1.4988916     -4.9773258      4087.2372      0.9786562      0.48236141   
    791000   0.99669016     3.8534097     -6.4308658      1.4946615     -4.9362043      4093.9414      0.97705355     0.48020199   
    792000   0.99734445     4.0569272     -6.4094566      1.4956427     -4.9138139      4088.1048      0.97844851     0.47854814   
    793000   1.0014071      3.811579      -6.4339412      1.5017352     -4.932206       4096.6593      0.97640534     0.48021613   
    794000   0.98149548     3.532645      -6.4331945      1.4718752     -4.9613194      4114.6066      0.97214639     0.47851226   
    795000   0.98457303     3.5619343     -6.4875378      1.4764903     -5.0110475      4093.089       0.97725703     0.48517469   
    796000   1.0155801      3.7658315     -6.4156228      1.5229893     -4.8926335      4106.0347      0.97417588     0.47769646   
    797000   1.0020912      3.8254436     -6.4402913      1.502761      -4.9375303      4092.353       0.97743278     0.47905206   
    798000   0.98729259     3.7876645     -6.4081353      1.4805687     -4.9275666      4104.5819      0.97452069     0.47624122   
    799000   1.014804       3.6744228     -6.4437479      1.5218254     -4.9219225      4102.0036      0.97513322     0.48271695   
    800000   0.98973373     4.0512028     -6.4526578      1.4842294     -4.9684283      4071.6444      0.98240406     0.48299754   
    801000   1.0170018      3.8670788     -6.4263906      1.5251214     -4.9012692      4095.6384      0.97664872     0.47846101   
    802000   1.0021118      3.7586091     -6.413571       1.5027918     -4.9107792      4106.9031      0.97396989     0.47814972   
    803000   0.98426547     3.7428251     -6.4000634      1.4760291     -4.9240343      4112.1332      0.97273114     0.47774597   
    804000   0.99297605     3.8381357     -6.4362601      1.4890917     -4.9471684      4092.6683      0.97735748     0.48160973   
    805000   1.0210186      3.9358635     -6.3943958      1.531145      -4.8632508      4102.6418      0.97498153     0.4765191    
    806000   0.99951589     3.8548584     -6.4154655      1.498899      -4.9165665      4098.3309      0.9760071      0.4786111    
    807000   0.98638394     3.6203121     -6.411219       1.479206      -4.9320129      4118.28        0.97127928     0.47773104   
    808000   1.006303       3.5414597     -6.44193        1.5090771     -4.9328529      4112.9553      0.97253671     0.48042956   
    809000   0.99720951     3.7119524     -6.4149487      1.4954403     -4.9195084      4110.6253      0.97308795     0.48060805   
    810000   0.99401659     3.8339616     -6.4121902      1.4906521     -4.9215381      4102.3633      0.97504772     0.47894267   
    811000   1.0172605      3.8160965     -6.4175034      1.5255093     -4.8919941      4102.4994      0.97501539     0.47913136   
    812000   0.98678578     3.6994143     -6.383372       1.4798086     -4.9035634      4122.4029      0.97030788     0.47315285   
    813000   0.9904812      3.5833164     -6.4374564      1.4853504     -4.952106       4110.4468      0.97313022     0.47975128   
    814000   0.99881352     3.7420292     -6.4361837      1.4978457     -4.9383379      4099.5985      0.97570531     0.48026576   
    815000   0.99552213     4.1494616     -6.3620987      1.4929099     -4.8691888      4097.6369      0.97617239     0.4743902    
    816000   1.0053693      3.7706289     -6.4042187      1.5076769     -4.8965418      4110.0686      0.97321977     0.47858626   
    817000   1.000218       3.6735684     -6.3643137      1.4999518     -4.8643618      4130.5759      0.96838797     0.47279789   
    818000   0.97860657     3.692069      -6.4377658      1.4675429     -4.9702229      4101.481       0.97525748     0.47847363   
    819000   1.0204849      3.6996703     -6.3845639      1.5303447     -4.8542191      4123.5626      0.97003498     0.47350062   
    820000   0.99826493     3.7961713     -6.4241133      1.497023      -4.9270903      4100.8845      0.97539934     0.47771411   
    821000   1.0012689      3.5743768     -6.4091966      1.5015279     -4.9076687      4122.4463      0.97029765     0.47767906   
    822000   1.0096433      3.7200382     -6.4088339      1.5140863     -4.8947476      4112.7726      0.97257992     0.47654518   
    823000   0.99243934     3.7525529     -6.3844407      1.4882869     -4.8961539      4118.8165      0.97115276     0.47296441   
    824000   0.98989817     3.6170611     -6.4125853      1.4844761     -4.9281092      4117.7555      0.97140298     0.47774664   
    825000   0.98847591     3.369473      -6.3743398      1.4823432     -4.8919967      4151.0563      0.96361015     0.47258011   
    826000   0.99230005     3.614794      -6.3887699      1.488078      -4.9006919      4126.2124      0.96941205     0.47575075   
    827000   1.0161302      3.6119238     -6.4224693      1.5238143     -4.898655       4115.3418      0.97197273     0.47833486   
    828000   1.0117329      3.4893021     -6.3774058      1.5172199     -4.8601858      4141.2879      0.9658831      0.47385954   
    829000   0.9906307      3.5943506     -6.4156448      1.4855746     -4.9300702      4118.6212      0.97119881     0.4764115    
    830000   1.0115437      3.5745676     -6.3802502      1.5169362     -4.863314       4135.6344      0.96720347     0.47377585   
    831000   1.0008601      3.7904897     -6.4044053      1.5009148     -4.9034905      4109.0049      0.97347169     0.47734549   
    832000   1.004355       3.5209244     -6.4083392      1.5061559     -4.9021833      4127.1888      0.96918271     0.4780001    
    833000   1.0112665      3.4807777     -6.3812727      1.5165206     -4.8647521      4139.678       0.96625873     0.47422859   
    834000   0.98962193     3.6640832     -6.3706485      1.4840618     -4.8865867      4130.967       0.96829628     0.47273716   
    835000   0.99817448     3.4968575     -6.3675023      1.4968874     -4.8706149      4143.0218      0.96547887     0.47394883   
    836000   1.0212558      3.49931       -6.4059492      1.5315008     -4.8744485      4130.5457      0.96839504     0.47539112   
    837000   1.00425        3.6539822     -6.4193597      1.5059984     -4.9133613      4113.5587      0.97239404     0.47993982   
    838000   0.98207854     3.6444895     -6.3435705      1.4727495     -4.870821       4141.8648      0.96574858     0.46940634   
    839000   0.99222901     3.6005729     -6.3815972      1.4879714     -4.8936258      4130.8423      0.96832552     0.47518926   
    840000   1.0079857      3.4855201     -6.4119521      1.5116005     -4.9003515      4128.6638      0.96883646     0.47521904   
    841000   1.0058266      3.3604685     -6.3641308      1.5083627     -4.855768       4154.8204      0.96273716     0.47267899   
    842000   0.98661022     3.3519924     -6.4295945      1.4795453     -4.9500492      4130.4424      0.96841927     0.47779302   
    843000   1.000953       3.5787194     -6.352247       1.5010542     -4.8511929      4144.1281      0.96522112     0.4740587    
    844000   1.0031294      3.6954142     -6.3612252      1.504318      -4.8569072      4130.8035      0.96833461     0.47362786   
    845000   0.9985134      3.4792357     -6.366032       1.4973957     -4.8686363      4146.8667      0.9645837      0.47253316   
    846000   0.99897003     3.3750677     -6.4282305      1.4980804     -4.9301501      4129.6712      0.96860012     0.47731251   
    847000   1.0186871      3.5487714     -6.33218        1.5276487     -4.8045313      4155.7417      0.96252374     0.47091606   
    848000   1.0313535      3.4513299     -6.4264883      1.5466434     -4.8798449      4127.0589      0.96921322     0.47773614   
    849000   1.0000439      3.4064923     -6.3830336      1.4996909     -4.8833427      4144.4303      0.96515075     0.47401353   
    850000   0.99471348     3.2424897     -6.331294       1.4916972     -4.8395968      4177.4845      0.95751403     0.46840867   
    851000   0.99614531     3.3184937     -6.3758352      1.4938444     -4.8819908      4154.629       0.96278151     0.47057928   
    852000   0.99604184     3.5029385     -6.3547343      1.4936892     -4.8610451      4147.7221      0.96438477     0.4695516    
    853000   1.0064008      3.6744477     -6.3459497      1.5092239     -4.8367258      4139.8966      0.96620771     0.47067392   
    854000   1.0058081      3.6640987     -6.3999167      1.508335      -4.8915816      4119.899       0.97089758     0.47473238   
    855000   1.0055409      3.3717299     -6.3980524      1.5079343     -4.8901181      4143.6655      0.96532888     0.47510433   
    856000   1.0104966      3.2600212     -6.3898412      1.515366      -4.8744752      4153.9019      0.96295004     0.47441002   
    857000   0.99134578     3.4615397     -6.3687189      1.4866469     -4.882072       4145.695       0.96485631     0.47238214   
    858000   1.0061918      3.4271714     -6.3686103      1.5089104     -4.8596998      4148.6557      0.96416775     0.47345021   
    859000   1.0059889      3.772732      -6.3530832      1.5086061     -4.8444771      4129.5996      0.96861691     0.4716952    
    860000   1.0073034      3.3984536     -6.3610485      1.5105773     -4.8504712      4155.7663      0.96251803     0.47055889   
    861000   0.98143211     3.4642286     -6.2896835      1.4717801     -4.8179034      4175.7366      0.95791482     0.46432164   
    862000   0.99310756     3.4169574     -6.3647015      1.4892889     -4.8754126      4150.4234      0.96375709     0.472514     
    863000   1.0073061      3.1943        -6.3402897      1.5105814     -4.8297082      4179.2445      0.95711078     0.46931585   
    864000   0.98452087     3.1956727     -6.4013125      1.4764121     -4.9249004      4153.5208      0.9630384      0.4754946    
    865000   1.0034616      3.2703055     -6.3553921      1.5048162     -4.8505759      4165.2844      0.96031858     0.47119566   
    866000   1.0033871      3.5115281     -6.3560811      1.5047044     -4.8513767      4147.9166      0.96433954     0.47225432   
    867000   1.0243116      3.2424959     -6.358338       1.5360832     -4.8222548      4168.6422      0.95954506     0.4713544    
    868000   0.9795415      3.4506573     -6.3744647      1.4689449     -4.9055198      4143.4407      0.96538125     0.47338498   
    869000   1.0048359      3.356708      -6.3354348      1.506877      -4.8285578      4168.4443      0.95959061     0.46966708   
    870000   0.98641082     3.4449126     -6.4212315      1.4792463     -4.9419851      4126.3125      0.96938854     0.47750053   
    871000   1.0224468      3.3134923     -6.3595523      1.5332868     -4.8262655      4162.7452      0.96090437     0.47194802   
    872000   1.0044687      3.5349615     -6.327179       1.5063263     -4.8208527      4155.7993      0.9625104      0.46887946   
    873000   1.0080387      3.1963135     -6.3535477      1.51168       -4.8418677      4173.4103      0.95844879     0.46915683   
    874000   0.99576231     2.999121      -6.3448732      1.4932701     -4.8516031      4189.99        0.95465621     0.46999415   
    875000   0.98401511     3.0431753     -6.360773       1.4756537     -4.8851194      4179.8595      0.95696996     0.47096661   
    876000   0.99119948     3.4092715     -6.3159737      1.4864275     -4.8295462      4170.8835      0.95902944     0.46812548   
    877000   1.0094919      3.4951876     -6.3158907      1.5138593     -4.8020313      4166.2341      0.96009966     0.46683442   
    878000   1.0038535      3.2063014     -6.3304128      1.5054038     -4.825009       4179.5093      0.95705016     0.4680397    
    879000   0.99443516     3.1253197     -6.3826165      1.4912798     -4.8913367      4167.5347      0.95980005     0.47323891   
    880000   0.97555243     3.1724856     -6.3287249      1.4629628     -4.8657621      4182.4994      0.95636594     0.46838149   
    881000   0.99962659     3.1812962     -6.3320367      1.499065      -4.8329716      4181.2557      0.95665042     0.46969284   
    882000   1.0085527      3.4145887     -6.3184882      1.5124509     -4.8060373      4169.1702      0.95942352     0.46862467   
    883000   1.0150526      3.1671682     -6.3542283      1.5221982     -4.8320301      4175.1966      0.95803872     0.46871884   
    884000   0.99755074     3.0800163     -6.338782       1.495952      -4.84283        4187.4479      0.95523576     0.46483347   
    885000   0.97442824     3.3694542     -6.3382287      1.4612769     -4.8769517      4162.9818      0.96084973     0.46940812   
    886000   0.99374416     3.3324754     -6.2904669      1.4902436     -4.8002233      4188.2199      0.9550597      0.46573193   
    887000   0.99489555     3.0084367     -6.4073528      1.4919702     -4.9153826      4165.421       0.96028709     0.47483521   
    888000   0.99651649     3.1074824     -6.2972663      1.494401      -4.8028653      4202.7863      0.95174956     0.46363169   
    889000   1.0101361      3.1058257     -6.3481027      1.5148254     -4.8332773      4183.4347      0.95615213     0.47004412   
    890000   0.98942554     3.1166928     -6.3231032      1.4837673     -4.839336       4190.3209      0.95458083     0.46648624   
    891000   1.0091737      3.0800564     -6.3515839      1.5133821     -4.8382018      4182.5149      0.95636241     0.46972848   
    892000   1.0222274      3.0434384     -6.3183429      1.5329578     -4.7853851      4200.4713      0.9522741      0.46706758   
    893000   0.97036203     3.1498133     -6.3677405      1.4551792     -4.9125613      4167.876       0.95972144     0.47208858   
    894000   1.0034338      3.0525682     -6.3108294      1.5047745     -4.806055       4200.77        0.95220638     0.4682828    
    895000   0.99884123     3.1935003     -6.3325715      1.4978873     -4.8346843      4181.8411      0.95651649     0.46855112   
    896000   1.0131928      3.0066167     -6.2968048      1.5194093     -4.7773955      4213.0159      0.94943863     0.46387619   
    897000   0.96157254     3.0110191     -6.3330761      1.4419982     -4.8910779      4191.7513      0.95425509     0.46923715   
    898000   0.98197818     2.9172539     -6.3315248      1.472599      -4.8589258      4201.1006      0.95213145     0.46853262   
    899000   0.98991379     3.1550887     -6.2909249      1.4844995     -4.8064254      4200.3444      0.95230286     0.46266535   
    900000   1.0140787      3.2001456     -6.298075       1.5207378     -4.7773373      4194.906       0.95353745     0.46433937   
    901000   0.99400266     3.1723869     -6.2860413      1.4906312     -4.79541        4200.7077      0.9522205      0.46357329   
    902000   1.0055998      3.0005027     -6.3100612      1.5080226     -4.8020386      4205.0037      0.95124768     0.4655994    
    903000   0.98825316     3.1311253     -6.3527129      1.4820091     -4.8707037      4176.9798      0.95762971     0.470892     
    904000   1.0061694      3.1065757     -6.2960535      1.5088768     -4.7871767      4202.5889      0.95179427     0.46579056   
    905000   0.99953034     3.118734      -6.3079767      1.4989207     -4.809056       4196.0992      0.9532663      0.46566879   
    906000   0.99088451     3.0196405     -6.3182074      1.4859552     -4.8322522      4198.9193      0.95262607     0.46812685   
    907000   0.99893612     2.9784691     -6.2538396      1.4980296     -4.75581        4229.2066      0.94580387     0.46244761   
    908000   1.0059986      3.1099517     -6.3207237      1.5086207     -4.812103       4193.0549      0.95395842     0.46369072   
    909000   0.99136411     2.9142653     -6.2758294      1.4866744     -4.789155       4225.0944      0.9467244      0.46273165   
    910000   0.98667656     3.0244392     -6.3375332      1.4796448     -4.8578883      4191.6518      0.95427773     0.46511866   
    911000   0.98844575     3.0634657     -6.2720323      1.482298      -4.7897343      4215.0181      0.94898761     0.46339504   
    912000   1.0082364      2.7385353     -6.3307343      1.5119766     -4.8187577      4218.943       0.94810478     0.46680096   
    913000   1.0019458      2.872192      -6.2996499      1.502543      -4.7971069      4221.4789      0.94753524     0.46375541   
    914000   0.9936115      3.0277337     -6.297618       1.4900446     -4.8075734      4208.1703      0.95053188     0.46394828   
    915000   1.0132119      3.2309239     -6.329243       1.5194379     -4.8098052      4181.6579      0.9565584      0.47010131   
    916000   1.0125416      3.2623967     -6.2833213      1.5184327     -4.7648886      4195.4849      0.95340589     0.46357687   
    917000   0.99170307     3.0654114     -6.2747636      1.4871827     -4.7875809      4214.0146      0.9492136      0.46086422   
    918000   0.98988437     2.8221832     -6.2823986      1.4844553     -4.7979433      4230.5211      0.94551001     0.46158082   
    919000   0.98481395     2.8593839     -6.275832       1.4768516     -4.7989804      4230.8106      0.94544531     0.46115565   
    920000   1.011036       2.9566271     -6.302647       1.5161748     -4.7864722      4212.7294      0.94950319     0.46592823   
    921000   1.0135374      3.0418349     -6.2752131      1.519926      -4.7552871      4219.077       0.94807466     0.46076392   
    922000   0.98829554     2.9623606     -6.2841517      1.4820727     -4.802079       4219.4253      0.94799639     0.46334474   
    923000   0.9875454      2.8461777     -6.2600749      1.4809478     -4.7791271      4236.608       0.94415154     0.46099511   
    924000   0.98754765     3.0614585     -6.2828778      1.4809511     -4.8019266      4211.7591      0.94972193     0.46396819   
    925000   0.99529327     2.8710334     -6.2132799      1.4925667     -4.7207133      4255.5867      0.9399409      0.45490027   
    926000   0.98567822     2.9478607     -6.2827693      1.4781477     -4.8046216      4219.0472      0.94808136     0.46427169   
    927000   1.0052189      3.0453078     -6.2346563      1.5074513     -4.7272049      4233.7651      0.94478553     0.45784956   
    928000   0.99114933     2.7897127     -6.3128182      1.4863523     -4.8264659      4221.27        0.94758212     0.46455998   
    929000   0.99579689     2.7693922     -6.2709825      1.4933219     -4.7776606      4238.6752      0.94369109     0.45967476   
    930000   1.0148754      2.9156106     -6.2819847      1.5219325     -4.7600522      4224.4712      0.94686408     0.4640453    
    931000   1.0225902      2.9071721     -6.2563535      1.5335018     -4.7228516      4236.5463      0.94416529     0.45887922   
    932000   0.99976526     2.9231655     -6.2998663      1.499273      -4.8005933      4215.9756      0.9487721      0.46737912   
    933000   0.98783616     2.8132647     -6.2293297      1.4813838     -4.7479459      4252.3528      0.94065572     0.458634     
    934000   1.0039563      2.9559965     -6.2697912      1.505558      -4.7642332      4226.852       0.94633075     0.46026677   
    935000   1.0132699      3.069262      -6.2256774      1.5195249     -4.7061526      4237.8469      0.94387553     0.4584167    
    936000   1.0130642      2.9639101     -6.2294328      1.5192164     -4.7102164      4244.583       0.94237761     0.45412498   
    937000   1.0164782      2.8331764     -6.208733       1.5243362     -4.6843968      4263.5154      0.93819293     0.45293603   
    938000   0.99827846     2.700147      -6.2826921      1.4970433     -4.7856488      4239.1338      0.94358899     0.4604406    
    939000   0.99744465     2.7756068     -6.172465       1.4957929     -4.6766721      4282.4014      0.93405537     0.45054418   
    940000   0.99429741     2.9003572     -6.2417069      1.4910732     -4.7506336      4241.604       0.94303947     0.46054403   
    941000   1.0051026      2.8673056     -6.2381158      1.507277      -4.7308388      4246.0411      0.94205401     0.45792183   
    942000   1.0126551      2.7367556     -6.2271409      1.5186029     -4.7085381      4263.312       0.9382377      0.45633926   
    943000   1.0053437      2.7522932     -6.2787183      1.5076386     -4.7710797      4238.3801      0.9437568      0.46200388   
    944000   1.0256995      2.4888859     -6.2383152      1.5381646     -4.7001506      4277.6513      0.93509259     0.45737093   
    945000   0.99189525     2.8631454     -6.2595164      1.4874709     -4.7720455      4238.3362      0.94376657     0.46209548   
    946000   0.98711754     2.8075571     -6.195776       1.4803061     -4.7154698      4268.2122      0.93716053     0.45348996   
    947000   0.99313732     2.8736809     -6.236908       1.4893336     -4.7475745      4246.0904      0.94204307     0.4568635    
    948000   1.0004724      2.7850584     -6.2460457      1.5003335     -4.7457122      4248.8596      0.94142909     0.46062621   
    949000   0.97697885     2.8591435     -6.1963106      1.4651019     -4.7312087      4263.2058      0.93826105     0.45376965   
    950000   0.9882537      2.7920583     -6.2413442      1.48201       -4.7593342      4249.9223      0.94119368     0.45848888   
    951000   1.0092599      2.8023443     -6.2521964      1.5135114     -4.738685       4246.3748      0.94197997     0.46007162   
    952000   0.99318613     2.7710158     -6.1841782      1.4894067     -4.6947714      4278.0825      0.93499833     0.45045673   
    953000   0.97607034     2.7243032     -6.2686784      1.4637395     -4.8049389      4243.329       0.9426561      0.45859159   
    954000   0.99286661     2.6795989     -6.2123001      1.4889276     -4.7233725      4271.2546      0.93649299     0.45332176   
    955000   0.98142313     2.7820034     -6.2127432      1.4717667     -4.7409765      4262.6818      0.9383764      0.4551111    
    956000   1.0108133      2.6647401     -6.2075608      1.5158409     -4.69172        4276.5771      0.93532746     0.45812324   
    957000   0.99024263     2.9118801     -6.253401       1.4849926     -4.7684084      4235.6047      0.9443752      0.45918604   
    958000   1.0043539      2.7209236     -6.1861472      1.5061542     -4.679993       4280.3557      0.93450178     0.45025604   
    959000   0.99859888     2.8398845     -6.221232       1.4975238     -4.7237082      4255.2868      0.94000714     0.45495969   
    960000   0.99523999     2.6681227     -6.2154689      1.4924868     -4.7229821      4270.7969      0.93659335     0.45608393   
    961000   0.98888745     2.459823      -6.2481037      1.4829603     -4.7651434      4274.8528      0.93570473     0.45626669   
    962000   0.97679616     2.4458637     -6.2137292      1.4648279     -4.7489013      4290.421       0.93230943     0.44983831   
    963000   0.98516376     2.6166566     -6.2241816      1.4773762     -4.7468054      4270.275       0.93670782     0.45907718   
    964000   0.99362375     2.4546682     -6.1472445      1.490063      -4.6571815      4320.6829      0.92577959     0.44927807   
    965000   1.0079446      2.5997015     -6.2116924      1.5115389     -4.7001535      4280.3642      0.93449993     0.45451172   
    966000   1.0169279      2.7178671     -6.2162599      1.5250105     -4.6912494      4271.4399      0.93645237     0.45641491   
    967000   1.0028477      2.601088      -6.1679676      1.5038955     -4.6640721      4299.8361      0.93026802     0.45003607   
    968000   0.99691373     2.4474825     -6.2197572      1.4949967     -4.7247605      4289.4248      0.93252597     0.45482838   
    969000   0.9967218      2.5656053     -6.2039874      1.4947089     -4.7092784      4286.7417      0.93310964     0.45213277   
    970000   0.97911943     2.5922079     -6.1974428      1.468312      -4.7291309      4286.4894      0.93316456     0.45093494   
    971000   0.9987691      2.654296      -6.2201715      1.4977791     -4.7223924      4271.3086      0.93648114     0.45286575   
    972000   1.0026237      2.5763785     -6.1314371      1.5035596     -4.6278776      4316.7188      0.92662973     0.44504275   
    973000   0.97740363     2.6447809     -6.1993186      1.4657389     -4.7335797      4279.9504      0.93459027     0.45439192   
    974000   0.99754558     2.5148611     -6.1885954      1.4959443     -4.6926511      4297.2437      0.93082921     0.45054602   
    975000   1.0104803      2.4738925     -6.2019866      1.5153415     -4.6866451      4294.4608      0.93143241     0.45123496   
    976000   0.99846186     2.6118219     -6.1730648      1.4973184     -4.6757465      4296.6991      0.9309472      0.44764407   
    977000   1.0014609      2.6006373     -6.1760936      1.5018158     -4.6742778      4297.5807      0.93075622     0.45010939   
    978000   0.99113744     2.6872136     -6.1202137      1.4863345     -4.6338792      4313.5873      0.92730244     0.44350234   
    979000   0.99996677     2.4985855     -6.154513       1.4995752     -4.6549379      4315.407       0.92691142     0.44589584   
    980000   0.97639742     2.6541891     -6.160627       1.46423       -4.696397       4296.0686      0.93108382     0.44935643   
    981000   0.99442445     2.2448632     -6.1036098      1.4912638     -4.612346       4356.8996      0.91808403     0.43999475   
    982000   0.99622453     2.4770705     -6.0861667      1.4939632     -4.5922034      4349.2142      0.91970637     0.4387099    
    983000   1.0069016      2.608114      -6.1163388      1.5099747     -4.6063641      4321.9497      0.92550822     0.44419062   
    984000   1.0180389      2.6725878     -6.1605582      1.5266766     -4.6338816      4297.4675      0.93078074     0.44997523   
    985000   0.99561355     2.4906376     -6.1129536      1.493047      -4.6199066      4335.0258      0.92271653     0.43809977   
    986000   1.0155875      2.4166483     -6.0545223      1.5230004     -4.5315219      4371.3546      0.91504816     0.43115004   
    987000   0.98573383     2.4007734     -5.9681289      1.4782311     -4.4898978      4409.2284      0.90718821     0.42237762   
    988000   0.94955777     2.5256502     -5.7724262      1.4239806     -4.3484456      4500.5929      0.88877179     0.39165484   
    989000   0.95757968     2.6225396     -5.4079495      1.4360104     -3.9719391      4688.3062      0.85318659     0.35931614   
    990000   1.0201229      2.3462873     -5.3052061      1.5298018     -3.7754042      4788.9859      0.8352499      0.35346799   
    991000   0.99565124     2.4680083     -5.3515752      1.4931035     -3.8584717      4743.411       0.84327502     0.35446748   
    992000   0.99155056     2.4532483     -5.2975652      1.486954      -3.8106112      4777.926       0.83718333     0.35231126   
    993000   0.9962847      2.3543489     -5.3560036      1.4940534     -3.8619502      4754.8186      0.84125186     0.35461133   
    994000   0.99469275     2.3951257     -5.3282192      1.4916661     -3.8365531      4770.7734      0.83843848     0.35399573   
    995000   0.99827121     2.3600588     -5.308824       1.4970325     -3.8117916      4782.3777      0.83640404     0.35411518   
    996000   1.0065104      2.4576046     -5.3228983      1.5093881     -3.8135101      4761.0657      0.84014804     0.35380206   
    997000   1.0019496      2.6506696     -5.2909747      1.5025486     -3.788426       4758.4936      0.84060216     0.35145217   
    998000   0.99991913     2.4902439     -5.2825479      1.4995037     -3.7830441      4782.0755      0.83645689     0.35137326   
    999000   1.0215733      2.3159115     -5.2948309      1.5319769     -3.7628541      4801.8451      0.83301312     0.35257738   
   1000000   0.99464535     2.3912307     -5.3085281      1.491595      -3.816933       4778.119       0.83714952     0.35506544   
   1001000   1.0038951      2.2620976     -5.3043909      1.5054661     -3.7989248      4796.9938      0.83385556     0.35390735   
   1002000   1.0039128      2.4535412     -5.3264671      1.5054927     -3.8209743      4760.5539      0.84023836     0.35455907   
   1003000   1.0097558      2.4040699     -5.2570712      1.5142551     -3.7428162      4812.193       0.83122186     0.35116993   
   1004000   0.97513437     2.3409896     -5.3354483      1.4623359     -3.8731124      4766.8138      0.83913495     0.35467296   
   1005000   0.99648348     2.3406491     -5.2806877      1.4943515     -3.7863362      4801.5464      0.83306494     0.35111629   
   1006000   0.99440261     2.2192253     -5.2861169      1.491231      -3.7948859      4811.0192      0.83142466     0.35278562   
   1007000   0.99352007     2.3907856     -5.3136073      1.4899075     -3.8236998      4778.9345      0.83700666     0.35293736   
   1008000   1.0222812      2.3759619     -5.2718211      1.5330385     -3.7387826      4807.1571      0.83209264     0.35154022   
   1009000   1.0176626      2.4947757     -5.2683222      1.5261123     -3.74221        4792.5826      0.83462307     0.35248536   
   1010000   1.0028915      2.323787      -5.2867391      1.5039611     -3.7827779      4797.7528      0.83372365     0.35401023   
   1011000   0.97254929     2.3515685     -5.2861323      1.4584592     -3.8276731      4794.9675      0.83420795     0.35172014   
   1012000   0.97112768     2.157292      -5.3065124      1.4563273     -3.8501851      4811.3469      0.83136804     0.35188033   
   1013000   0.96994946     2.3727965     -5.2660109      1.4545605     -3.8114504      4807.5431      0.83202582     0.35059748   
   1014000   1.0140684      2.3381557     -5.273062       1.5207224     -3.7523396      4806.413       0.83222144     0.35181659   
   1015000   1.0332054      2.2584477     -5.3089402      1.5494206     -3.7595196      4802.0158      0.83298351     0.3512825    
   1016000   0.99805544     2.3155118     -5.2757831      1.4967089     -3.7790742      4806.4345      0.83221773     0.35182017   
   1017000   0.9784435      2.3119851     -5.249045       1.4672983     -3.7817466      4824.5643      0.82909042     0.35258836   
   1018000   0.99845496     2.2502767     -5.2634967      1.497308      -3.7661887      4824.683       0.82907001     0.35334924   
   1019000   1.01534        2.2084486     -5.2813108      1.5226293     -3.7586815      4820.8403      0.82973086     0.3512165    
   1020000   0.99263113     2.4528667     -5.2666485      1.4885745     -3.7780741      4796.2649      0.8339823      0.3537621    
   1021000   1.001112       2.3880499     -5.2791645      1.5012926     -3.7778718      4798.0006      0.83368059     0.35286589   
   1022000   0.99186805     2.1587244     -5.261777       1.4874301     -3.7743469      4834.5746      0.82737372     0.34955244   
   1023000   0.98264022     2.2191336     -5.2948207      1.4735918     -3.8212289      4806.6698      0.83217698     0.35323501   
   1024000   1.016315       2.1204608     -5.2356793      1.5240913     -3.7115879      4857.7533      0.82342592     0.35034803   
   1025000   0.98702808     2.325592      -5.2642801      1.480172      -3.7841081      4814.6985      0.83078931     0.35104496   
   1026000   0.9967712      2.1696106     -5.287528       1.494783      -3.792745       4825.5771      0.82891641     0.35035112   
   1027000   0.9943415      2.25984       -5.2771922      1.4911394     -3.7860529      4820.1927      0.82984233     0.35174587   
   1028000   1.003039       2.117079      -5.275748       1.5041824     -3.7715656      4836.7741      0.82699747     0.35192714   
   1029000   0.98325423     2.1222109     -5.2467238      1.4745126     -3.7722112      4848.1844      0.82505113     0.35237407   
   1030000   1.0044984      2.0988555     -5.2722212      1.5063709     -3.7658503      4838.7751      0.82665549     0.35056752   
   1031000   1.0086037      2.1613755     -5.2876589      1.5125273     -3.7751316      4826.1521      0.82881764     0.35291708   
   1032000   1.0199593      2.1502755     -5.246554       1.5295565     -3.7169975      4849.0283      0.82490754     0.35190807   
   1033000   1.0119085      2.2505249     -5.2468069      1.5174834     -3.7293236      4837.7614      0.82682871     0.35213368   
   1034000   1.0041642      2.1732462     -5.2289134      1.5058698     -3.7230437      4858.9811      0.82321786     0.35078002   
   1035000   0.98048934     2.2469125     -5.2642001      1.4703663     -3.7938338      4823.7766      0.8292258      0.35130282   
   1036000   0.99836774     1.9614207     -5.2041223      1.4971772     -3.7069451      4899.3333      0.81643761     0.35110235   
   1037000   0.98694881     2.1438032     -5.244873       1.4800531     -3.7648199      4848.884       0.82493208     0.35095879   
   1038000   0.99617226     2.0814924     -5.2260114      1.4938848     -3.7321266      4868.9891      0.82152576     0.34999849   
   1039000   1.0169985      2.0311132     -5.2702712      1.5251164     -3.7451548      4847.7509      0.82512491     0.35003331   
   1040000   0.97987397     2.1386725     -5.2394187      1.4694435     -3.7699752      4850.3786      0.82467789     0.34786869   
   1041000   0.98333624     2.105621      -5.2367714      1.4746356     -3.7621358      4856.4589      0.82364539     0.35040451   
   1042000   0.97961292     2.0305679     -5.2376576      1.469052      -3.7686056      4866.6207      0.82192558     0.35114503   
   1043000   1.004693       1.8955135     -5.253013       1.5066627     -3.7463502      4881.5696      0.81940857     0.35028766   
   1044000   1.0144121      2.0890816     -5.2360766      1.5212378     -3.7148388      4865.8433      0.8220569      0.34865946   
   1045000   1.0141664      2.2518072     -5.1901864      1.5208693     -3.6693171      4873.4147      0.82077973     0.34878267   
   1046000   1.0202331      2.1270869     -5.2399958      1.5299671     -3.7100288      4856.6202      0.82361804     0.3500044    
   1047000   1.0159938      2.0267339     -5.2468456      1.5236097     -3.7232359      4867.3659      0.82179973     0.35317988   
   1048000   1.0107518      1.8935014     -5.2632128      1.5157487     -3.7474641      4872.5017      0.82093352     0.34952562   
   1049000   0.98823708     1.9318567     -5.2040736      1.481985      -3.7220886      4904.4844      0.81558012     0.34932916   
   1050000   0.9754132      1.9372939     -5.2294215      1.462754      -3.7666675      4889.3259      0.81810869     0.35085596   
   1051000   0.9884001      1.9517052     -5.2302736      1.4822295     -3.7480441      4883.226       0.81913063     0.35065808   
   1052000   0.99794156     2.1827924     -5.1827012      1.4965381     -3.6861631      4886.3802      0.81860188     0.34944857   
   1053000   1.0120418      2.1070467     -5.1903463      1.5176832     -3.6726631      4889.8263      0.81802497     0.34849071   
   1054000   1.0085644      2.0087836     -5.2087176      1.5124685     -3.6962492      4890.6186      0.81789244     0.34866643   
   1055000   0.98635848     1.9856827     -5.1625379      1.4791678     -3.68337        4922.9711      0.81251747     0.34744963   
   1056000   0.98621192     2.1336344     -5.2098146      1.478948      -3.7308666      4871.7163      0.82106587     0.34951471   
   1057000   1.004511       1.9057779     -5.1749694      1.5063899     -3.6685795      4929.0662      0.81151273     0.34847612   
   1058000   0.98460034     1.9959902     -5.2252209      1.4765313     -3.7486897      4879.8951      0.81968975     0.34912833   
   1059000   0.98654788     1.992988      -5.1603822      1.4794519     -3.6809304      4921.4482      0.81276889     0.3469876    
   1060000   0.99143474     1.9432169     -5.1594006      1.4867803     -3.6726203      4933.1994      0.81083282     0.34488271   
   1061000   0.99944486     2.0574137     -5.1936809      1.4987925     -3.6948884      4889.8544      0.81802026     0.34899824   
   1062000   1.0140503      1.948591      -5.2088071      1.5206951     -3.688112       4900.0106      0.81632477     0.35059577   
   1063000   1.00963        1.866317      -5.1896508      1.5140665     -3.6755843      4927.4969      0.81177119     0.34727873   
   1064000   0.99834027     1.822115      -5.2127566      1.497136      -3.7156206      4908.5298      0.81490796     0.34842217   
   1065000   0.9899708      1.8527785     -5.1859776      1.484585      -3.7013926      4923.1127      0.81249409     0.34780178   
   1066000   0.97053218     1.9501663     -5.1731548      1.4554343     -3.7177205      4919.3256      0.81311959     0.34877054   
   1067000   0.99655865     1.8853638     -5.1850428      1.4944643     -3.6905786      4919.8791      0.81302811     0.34626491   
   1068000   1.0056718      1.9512246     -5.1997164      1.5081305     -3.6915859      4902.8625      0.81584993     0.349033     
   1069000   0.99424304     2.0476032     -5.1412803      1.4909917     -3.6502886      4929.4396      0.81145126     0.34509837   
   1070000   0.99096049     1.9334882     -5.201254       1.4860691     -3.7151849      4902.4214      0.81592332     0.34949365   
   1071000   1.0060947      1.8359424     -5.1738938      1.5087648     -3.665129       4940.4763      0.80963853     0.34947351   
   1072000   1.0021467      1.8200086     -5.1524506      1.5028443     -3.6496063      4960.1401      0.80642884     0.34609979   
   1073000   0.98806737     1.9977951     -5.1899132      1.4817305     -3.7081827      4903.9415      0.81567042     0.34946394   
   1074000   0.99725763     1.9279253     -5.1624257      1.4955125     -3.6669133      4933.0251      0.81086147     0.34779477   
   1075000   1.0207106      1.9671359     -5.1400469      1.5306832     -3.6093637      4941.1598      0.80952654     0.34908774   
   1076000   1.0232475      2.0073552     -5.1447226      1.5344876     -3.610235       4934.4259      0.81063129     0.34776311   
   1077000   0.99888855     1.8484434     -5.1819562      1.4979582     -3.683998       4930.0164      0.81135633     0.3470332    
   1078000   0.99377517     1.7841445     -5.1650822      1.4902901     -3.6747921      4951.8905      0.8077723      0.34708606   
   1079000   0.9669734      1.8158003     -5.1614567      1.4500975     -3.7113592      4941.994       0.8093899      0.34583775   
   1080000   0.9951669      1.7392666     -5.1821257      1.4923772     -3.6897486      4941.043       0.80954568     0.34738187   
   1081000   0.99960416     1.7861997     -5.1535355      1.4990314     -3.6545042      4958.1341      0.80675511     0.3467639    
   1082000   0.99670374     1.7408465     -5.1232847      1.4946819     -3.6286028      4983.783       0.80260316     0.34507172   
   1083000   0.9910904      1.8737335     -5.1794283      1.4862639     -3.6931644      4928.5881      0.81159146     0.34849306   
   1084000   1.0081218      1.8526926     -5.122167       1.5118046     -3.6103625      4967.8009      0.80518525     0.34668124   
   1085000   1.0080846      1.8327066     -5.1650542      1.5117489     -3.6533053      4943.2232      0.80918863     0.34669638   
   1086000   0.99813195     1.7659522     -5.1491655      1.4968236     -3.6523418      4963.2394      0.80592525     0.3465649    
   1087000   0.9892844      1.7433695     -5.1860752      1.4835556     -3.7025196      4937.333       0.81015398     0.34909866   
   1088000   1.0043972      1.6798164     -5.1368585      1.5062191     -3.6306394      4982.8198      0.80275831     0.34673982   
   1089000   1.0128033      1.8317362     -5.1547868      1.5188252     -3.6359616      4953.6413      0.8074868      0.34571082   
   1090000   0.99147219     1.9598967     -5.1174486      1.4868365     -3.6306121      4958.8627      0.80663657     0.3448106    
   1091000   1.0055587      1.9733806     -5.1218913      1.507961      -3.6139304      4953.2157      0.80755618     0.34716876   
   1092000   1.0082333      1.7356319     -5.1328217      1.5119719     -3.6208498      4981.756       0.80292973     0.34603557   
   1093000   0.99728847     1.6222036     -5.1278904      1.4955587     -3.6323317      4999.0932      0.80014512     0.34578591   
   1094000   0.98159441     1.6322841     -5.1431728      1.4720235     -3.6711493      4983.1566      0.80270406     0.34519307   
   1095000   0.98761443     1.6785185     -5.1108638      1.4810513     -3.6298125      5005.416       0.79913439     0.34428774   
   1096000   0.99868126     1.7629367     -5.1575427      1.4976474     -3.6598953      4960.4766      0.80637414     0.34664456   
   1097000   1.0045811      1.5480883     -5.0918945      1.5064949     -3.5853996      5028.9633      0.79539256     0.34398568   
   1098000   0.99559868     1.7404302     -5.1418918      1.4930247     -3.6488672      4968.8941      0.8050081      0.34617642   
   1099000   0.99397643     1.4767537     -5.1383079      1.4905919     -3.647716       5015.4467      0.79753614     0.34432293   
   1100000   0.97842185     1.6412835     -5.1082509      1.4672659     -3.6409851      5012.4195      0.79801781     0.3455536    
   1101000   0.98225979     1.5969746     -5.1250448      1.4730213     -3.6520235      5002.0943      0.79966505     0.34636937   
   1102000   0.97882227     1.5390838     -5.1010303      1.4678663     -3.633164       5029.1492      0.79536317     0.3443106    
   1103000   0.97797404     1.7118519     -5.106822       1.4665943     -3.6402277      4997.8501      0.80034413     0.34620562   
   1104000   0.98861593     1.6867134     -5.0834552      1.4825532     -3.6009021      5019.6799      0.79686357     0.34439242   
   1105000   1.0090911      1.579541      -5.11672        1.5132582     -3.6034618      5012.2772      0.79804047     0.3456882    
   1106000   1.008615       1.680374      -5.1012994      1.5125443     -3.5887551      5014.519       0.79768369     0.34606166   
   1107000   1.0058939      1.8182583     -5.1098505      1.5084636     -3.6013869      4985.1363      0.80238528     0.34313772   
   1108000   0.99410153     1.7428643     -5.066639       1.4907795     -3.5758595      5029.0015      0.79538652     0.34458986   
   1109000   0.99324584     1.6166889     -5.088261       1.4894963     -3.5987647      5029.0113      0.79538498     0.34434598   
   1110000   0.99210779     1.650099      -5.0922919      1.4877896     -3.6045022      5022.0289      0.79649084     0.34640907   
   1111000   0.98102157     1.4007363     -5.0807582      1.4711645     -3.6095937      5060.9382      0.79036728     0.34402191   
   1112000   0.99141764     1.5735764     -5.0922382      1.4867547     -3.6054835      5030.8081      0.79510089     0.34500359   
   1113000   0.98195214     1.6428977     -5.0797365      1.47256       -3.6071765      5031.5191      0.79498854     0.34370136   
   1114000   1.0118626      1.5236045     -5.1137601      1.5174144     -3.5963457      5020.8704      0.79667462     0.34618857   
   1115000   1.004458       1.7523371     -5.0916263      1.5063103     -3.585316       5010.7432      0.79828477     0.34507391   
   1116000   1.0089833      1.5852005     -5.0560946      1.5130966     -3.542998       5054.9412      0.79130495     0.34263684   
   1117000   1.0161614      1.6375069     -5.1091794      1.5238611     -3.5853183      5018.0845      0.79711691     0.34550609   
   1118000   0.99774799     1.5652193     -5.0464878      1.4962478     -3.55024        5065.7986      0.78960896     0.34253483   
   1119000   0.99854175     1.7055842     -5.143706       1.4974382     -3.6462678      4979.7346      0.80325566     0.34674361   
   1120000   0.99231387     1.6076822     -5.001095       1.4880987     -3.5129964      5087.7372      0.78620412     0.34044755   
   1121000   1.0032222      1.5559006     -5.0813364      1.5044571     -3.5768793      5041.139       0.79347147     0.34448238   
   1122000   0.9882152      1.5255493     -5.0707047      1.4819522     -3.5887525      5051.9038      0.79178071     0.34391719   
   1123000   0.98326193     1.5960162     -5.0549385      1.4745242     -3.5804143      5050.7         0.79196943     0.34258836   
   1124000   0.99959909     1.4396812     -5.081338       1.4990238     -3.5823143      5050.483       0.79200346     0.34198402   
   1125000   1.0054591      1.5101883     -5.0569334      1.5078116     -3.5491218      5072.0863      0.78863012     0.34159211   
   1126000   1.0045142      1.5744014     -5.0679696      1.5063946     -3.561575       5051.7188      0.79180971     0.34289045   
   1127000   1.0149595      1.5322557     -5.0884113      1.5220587     -3.5663527      5038.3693      0.79390766     0.34292952   
   1128000   1.0151039      1.4266341     -5.0514734      1.5222752     -3.5291982      5083.7498      0.78682078     0.34341756   
   1129000   0.988111       1.4819623     -5.0459202      1.481796      -3.5641242      5075.6767      0.78807226     0.34205645   
   1130000   0.96712366     1.3450324     -5.0258383      1.4503228     -3.5755154      5113.5583      0.78223416     0.34062612   
   1131000   0.99219931     1.4682492     -5.0679738      1.4879269     -3.5800469      5067.8376      0.78929127     0.34256024   
   1132000   0.9829095      1.5789077     -5.0028389      1.4739957     -3.5288433      5093.6866      0.78528585     0.34189932   
   1133000   0.99932985     1.3346327     -5.0339469      1.49862       -3.5353269      5111.7208      0.78251536     0.34130872   
   1134000   1.0102516      1.5185563     -5.0576126      1.5149985     -3.5426141      5064.2823      0.78984538     0.34323851   
   1135000   1.0088265      1.4376708     -4.9970683      1.5128615     -3.4842068      5120.9593      0.78110366     0.34134286   
   1136000   0.99204744     1.5454891     -5.0246565      1.4876991     -3.5369574      5087.2982      0.78627197     0.34094902   
   1137000   0.99111269     1.3612286     -5.008988       1.4862974     -3.5226906      5124.1002      0.78062486     0.33976614   
   1138000   0.99428735     1.2359287     -5.006561       1.4910582     -3.5155028      5142.1525      0.77788435     0.3427093    
   1139000   0.98907992     1.4480243     -5.035915       1.483249      -3.552666       5085.5704      0.7865391      0.341689     
   1140000   0.99356615     1.3845548     -4.9676325      1.4899766     -3.4776559      5142.8969      0.77777176     0.34016556   
   1141000   0.99563761     1.5374864     -5.0205682      1.493083      -3.5274851      5086.7945      0.78634983     0.33958618   
   1142000   1.0039698      1.4328845     -5.0455145      1.5055782     -3.5399363      5083.2207      0.78690268     0.34108827   
   1143000   0.99186498     1.3474719     -4.9660503      1.4874255     -3.4786248      5158.003       0.77549392     0.3396125    
   1144000   1.0104399      1.3285589     -5.0117654      1.515281      -3.4964844      5128.4423      0.77996394     0.34220104   
   1145000   1.0252761      1.4294101     -5.0365413      1.5375296     -3.4990117      5097.8396      0.78464611     0.34221117   
   1146000   1.0146544      1.4351622     -5.0063004      1.5216012     -3.4846993      5116.9971      0.78170847     0.33964449   
   1147000   1.0130359      1.3400632     -4.9953582      1.5191739     -3.4761843      5144.0733      0.77759389     0.33991245   
   1148000   0.9974718      1.3437505     -4.9879481      1.4958337     -3.4921145      5144.2991      0.77755976     0.33911309   
   1149000   0.98777065     1.4115994     -4.9701883      1.4812856     -3.4889027      5149.4294      0.7767851      0.34025886   
   1150000   0.97890048     1.3460757     -4.9288958      1.4679836     -3.4609122      5183.0132      0.77175184     0.3386803    
   1151000   0.98793614     1.4862647     -5.0114842      1.4815337     -3.5299505      5096.6827      0.78482422     0.34132501   
   1152000   1.0114409      1.2594379     -4.9925933      1.516782      -3.4758112      5152.4755      0.77632586     0.3395388    
   1153000   0.99826044     1.389139      -4.9609621      1.4970163     -3.4639458      5150.7465      0.77658647     0.33789948   
   1154000   1.0129168      1.4239928     -4.9751688      1.5189953     -3.4561735      5145.0575      0.77744515     0.33967625   
   1155000   1.0056759      1.4657886     -4.9593182      1.5081367     -3.4511815      5146.6555      0.77720376     0.33784435   
   1156000   1.0166842      1.3064031     -4.9662173      1.5246451     -3.4415722      5166.0598      0.77428449     0.33922805   
   1157000   1.0089399      1.2978259     -4.9822628      1.5130315     -3.4692313      5159.8003      0.7752238      0.33980458   
   1158000   1.0016546      1.2542003     -4.9694514      1.5021064     -3.4673451      5170.2251      0.77366071     0.34030841   
   1159000   1.0121924      1.4285224     -4.9870736      1.517909      -3.4691646      5136.8088      0.77869358     0.34238577   
   1160000   1.0048019      1.3148709     -4.9398264      1.506826      -3.4330004      5184.4102      0.77154389     0.33778322   
   1161000   1.0007463      1.3266308     -4.9539708      1.5007441     -3.4532267      5173.8919      0.7731124      0.33894717   
   1162000   1.012836       1.3260569     -4.9195985      1.5188743     -3.4007242      5203.8149      0.76866684     0.33536159   
   1163000   0.98669582     1.202938      -4.9893185      1.4796737     -3.5096447      5169.6973      0.77373969     0.34162813   
   1164000   0.9874985      1.242263      -4.9466713      1.4808774     -3.4657939      5195.5867      0.76988418     0.33913635   
   1165000   0.99957145     1.1225079     -4.9811386      1.4989823     -3.4821563      5182.955       0.77176051     0.34087446   
   1166000   1.0040068      1.2218717     -4.9620799      1.5056337     -3.4564462      5180.8567      0.77207308     0.33970254   
   1167000   0.99479115     1.3457597     -4.9075684      1.4918137     -3.4157547      5201.8539      0.76895662     0.3372952    
   1168000   1.0198637      1.225357      -4.9427561      1.5294132     -3.413343       5205.3785      0.76843596     0.34056671   
   1169000   1.0167859      1.3816386     -4.9237161      1.5247976     -3.3989185      5188.0893      0.77099675     0.33943731   
   1170000   1.0171731      1.1532804     -4.9351656      1.5253781     -3.4097874      5213.8018      0.76719448     0.33764967   
   1171000   1.0153482      1.3719203     -4.928578       1.5226415     -3.4059365      5189.1789      0.77083486     0.3370832    
   1172000   1.0144778      1.1038378     -4.9204485      1.5213363     -3.3991122      5231.5924      0.76458555     0.33927881   
   1173000   0.98896461     1.1771598     -4.9544297      1.483076      -3.4713536      5196.3774      0.76976703     0.33978242   
   1174000   1.0098607      1.1782917     -4.8910628      1.5144123     -3.3766505      5248.5294      0.76211824     0.33776852   
   1175000   0.98808575     1.234999      -4.9358808      1.4817581     -3.4541227      5201.0012      0.76908269     0.33881489   
   1176000   0.99460518     1.0985164     -4.9285299      1.4915348     -3.4369951      5233.7787      0.76426616     0.33730986   
   1177000   1.0070209      1.0624667     -4.9352947      1.5101537     -3.425141       5233.9834      0.76423628     0.33769738   
   1178000   0.98983335     1.0151379     -4.9167231      1.4843788     -3.4323442      5253.7675      0.76135839     0.33899622   
   1179000   0.99336763     1.0722921     -4.9079994      1.4896789     -3.4183204      5248.0789      0.76218367     0.33831606   
   1180000   0.99945273     1.0223278     -4.8441802      1.4988043     -3.3453759      5311.363       0.75310236     0.33374235   
   1181000   0.98385155     1.2515509     -4.9049278      1.4754084     -3.4295194      5218.219       0.76654506     0.33641602   
   1182000   0.9999844      1.0225641     -4.8571772      1.4996016     -3.3575756      5308.0599      0.753571       0.33517525   
   1183000   0.98129521     1.1978836     -4.9170544      1.4715748     -3.4454796      5213.6492      0.76721694     0.33607181   
   1184000   0.99813915     1.0543445     -4.8753688      1.4968344     -3.3785344      5285.8965      0.75673067     0.33389902   
   1185000   0.99611817     1.1824374     -4.8978718      1.4938037     -3.4040681      5241.5811      0.76312851     0.33629874   
   1186000   1.0014228      1.0671953     -4.8409905      1.5017587     -3.3392319      5308.8163      0.75346363     0.33643294   
   1187000   0.99595667     1.1081477     -4.9026394      1.4935615     -3.4090779      5249.8023      0.76193345     0.33739236   
   1188000   1.0105125      0.98759535    -4.8204804      1.5153898     -3.3050906      5334.4447      0.74984374     0.33533909   
   1189000   1.0246404      1.0122757     -4.8848174      1.5365764     -3.348241       5283.5714      0.75706367     0.33556868   
   1190000   1.0100162      1.2219193     -4.8511437      1.5146455     -3.3364982      5276.0746      0.75813939     0.33673265   
   1191000   1.0153899      1.2019253     -4.8201276      1.522704      -3.2974235      5308.1282      0.7535613      0.33422496   
   1192000   1.0042779      1.0525521     -4.8798262      1.5060403     -3.373786       5269.99        0.75901472     0.33458868   
   1193000   0.9873502      1.0651333     -4.8458218      1.480655      -3.3651667      5295.5659      0.75534892     0.33368181   
   1194000   0.99041597     0.93885785    -4.8001467      1.4852525     -3.3148942      5361.917       0.74600184     0.33374512   
   1195000   1.0013606      1.0185947     -4.8594042      1.5016654     -3.3577388      5305.5003      0.75393455     0.3360817    
   1196000   0.97345236     1.0161759     -4.8692029      1.4598135     -3.4093894      5279.0414      0.75771332     0.33533807   
   1197000   1.0084509      0.9876988     -4.8209954      1.5122982     -3.3086972      5338.0462      0.74933785     0.33301232   
   1198000   0.99418783     1.0688942     -4.8218229      1.4909089     -3.330914       5320.1624      0.75185675     0.33591332   
   1199000   0.98022545     1.1182008     -4.8453463      1.4699706     -3.3753758      5290.4657      0.7560771      0.33459891   
   1200000   1.0099499      1.0034823     -4.7596332      1.5145462     -3.245087       5396.9382      0.74116098     0.33165199   
Loop time of 1789 on 1 procs for 1000000 steps with 4000 atoms

Performance: 241475.284 tau/day, 558.971 timesteps/s, 2.236 Matom-step/s
99.9% CPU use with 1 MPI tasks x 1 OpenMP threads

MPI task timing breakdown:
Section |  min time  |  avg time  |  max time  |%varavg| %total
---------------------------------------------------------------
Pair    | 1089.1     | 1089.1     | 1089.1     |   0.0 | 60.88
Neigh   | 447.06     | 447.06     | 447.06     |   0.0 | 24.99
Comm    | 18.88      | 18.88      | 18.88      |   0.0 |  1.06
Output  | 19.118     | 19.118     | 19.118     |   0.0 |  1.07
Modify  | 207.08     | 207.08     | 207.08     |   0.0 | 11.58
Other   |            | 7.751      |            |       |  0.43

Nlocal:           4000 ave        4000 max        4000 min
Histogram: 1 0 0 0 0 0 0 0 0 0
Nghost:           5205 ave        5205 max        5205 min
Histogram: 1 0 0 0 0 0 0 0 0 0
Neighs:         132975 ave      132975 max      132975 min
Histogram: 1 0 0 0 0 0 0 0 0 0
FullNghs:       265784 ave      265784 max      265784 min
Histogram: 1 0 0 0 0 0 0 0 0 0

Total # of neighbors = 265784
Ave neighs/atom = 66.446
Neighbor list builds = 137515
Dangerous builds = 0


# ============================================================
# 16. END MELTING SIMULATION
# ============================================================

unfix           melt


# ============================================================
# 17. SAVE FINAL CONFIGURATION
# ============================================================

write_restart   fcc_after_decompression.restart
System init for write_restart ...
Generated 0 of 0 mixed pair_coeff terms from geometric mixing rule

write_data      fcc_after_decompression.data
System init for write_data ...
Generated 0 of 0 mixed pair_coeff terms from geometric mixing rule


# ============================================================
# 18. FINISH
# ============================================================

print "======================================================"
======================================================
print "SIMULATION FINISHED"
SIMULATION FINISHED
print "Final configuration written to:"
Final configuration written to:
print "fcc_after_decompression.data"
fcc_after_decompression.data
print "======================================================"
======================================================
Total wall time: 0:35:57
